ADDGRID = .TRUE.
ALGO = normal
EDIFF = 1e-08
ENCUT = 650
GGA = ps
ICHARG = 1
ISIF = 3
ISMEAR = 0
ISPIN = 1
KPAR = 2
LASPH = .TRUE.
LREAL = .FALSE.
LWAVE = .FALSE.
NCORE = 10
NELM = 200
NELMIN = 8
PREC = accurate
SIGMA = 0.05
