# Compound: Se64Ag128. Old comment: Ag2S
   1.00000000000000     
    17.6743430000000004    0.0000000000000000    0.0259075600000000
     0.0000000000000000   13.7751620999999993    0.0000000000000000
    -4.2314416799999996    0.0000000000000000   15.2259428600000000
   Se   Ag
    64   128
Direct
  0.0797477361999981  0.1241388199999989  0.0784182550000025
  0.3303135275000031  0.1241388199999989  0.0784182550000025
  0.5803135275000031  0.1241388199999989  0.0784182550000025
  0.8303135275000031  0.1241388199999989  0.0784182550000025
  0.0803135275000031  0.6241388199999989  0.0784182550000025
  0.3303135275000031  0.6241388199999989  0.0784182550000025
  0.5803135275000031  0.6241388199999989  0.0784182550000025
  0.8303135275000031  0.6241388199999989  0.0784182550000025
  0.0803135275000031  0.1241388199999989  0.5784182550000025
  0.3303135275000031  0.1241388199999989  0.5784182550000025
  0.5803135275000031  0.1241388199999989  0.5784182550000025
  0.8303135275000031  0.1241388199999989  0.5784182550000025
  0.0803135275000031  0.6241388199999989  0.5784182550000025
  0.3303135275000031  0.6241388199999989  0.5784182550000025
  0.5803135275000031  0.6241388199999989  0.5784182550000025
  0.8303135275000031  0.6241388199999989  0.5784182550000025
  0.0446864600000012  0.3741388199999989  0.1715816849999996
  0.2946864600000012  0.3741388199999989  0.1715816849999996
  0.5446864600000012  0.3741388199999989  0.1715816849999996
  0.7946864600000012  0.3741388199999989  0.1715816849999996
  0.0446864600000012  0.8741388199999989  0.1715816849999996
  0.2946864600000012  0.8741388199999989  0.1715816849999996
  0.5446864600000012  0.8741388199999989  0.1715816849999996
  0.7946864600000012  0.8741388199999989  0.1715816849999996
  0.0446864600000012  0.3741388199999989  0.6715816849999996
  0.2946864600000012  0.3741388199999989  0.6715816849999996
  0.5446864600000012  0.3741388199999989  0.6715816849999996
  0.7946864600000012  0.3741388199999989  0.6715816849999996
  0.0446864600000012  0.8741388199999989  0.6715816849999996
  0.2946864600000012  0.8741388199999989  0.6715816849999996
  0.5446864600000012  0.8741388199999989  0.6715816849999996
  0.7946864600000012  0.8741388199999989  0.6715816849999996
  0.1696864600000012  0.3758611800000011  0.4215816849999996
  0.4196864600000012  0.3758611800000011  0.4215816849999996
  0.6696864600000012  0.3758611800000011  0.4215816849999996
  0.9196864600000012  0.3758611800000011  0.4215816849999996
  0.1696864600000012  0.8758611800000011  0.4215816849999996
  0.4196864600000012  0.8758611800000011  0.4215816849999996
  0.6696864600000012  0.8758611800000011  0.4215816849999996
  0.9196864600000012  0.8758611800000011  0.4215816849999996
  0.1696864600000012  0.3758611800000011  0.9215816849999996
  0.4196864600000012  0.3758611800000011  0.9215816849999996
  0.6696864600000012  0.3758611800000011  0.9215816849999996
  0.9196864600000012  0.3758611800000011  0.9215816849999996
  0.1696864600000012  0.8758611800000011  0.9215816849999996
  0.4196864600000012  0.8758611800000011  0.9215816849999996
  0.6696864600000012  0.8758611800000011  0.9215816849999996
  0.9196864600000012  0.8758611800000011  0.9215816849999996
  0.2053135275000031  0.1258611800000011  0.3284182550000025
  0.4553135275000031  0.1258611800000011  0.3284182550000025
  0.7053135275000031  0.1258611800000011  0.3284182550000025
  0.9553135275000031  0.1258611800000011  0.3284182550000025
  0.2053135275000031  0.6258611800000011  0.3284182550000025
  0.4553135275000031  0.6258611800000011  0.3284182550000025
  0.7053135275000031  0.6258611800000011  0.3284182550000025
  0.9553135275000031  0.6258611800000011  0.3284182550000025
  0.2053135275000031  0.1258611800000011  0.8284182550000025
  0.4553135275000031  0.1258611800000011  0.8284182550000025
  0.7053135275000031  0.1258611800000011  0.8284182550000025
  0.9553135275000031  0.1258611800000011  0.8284182550000025
  0.2053135275000031  0.6258611800000011  0.8284182550000025
  0.4553135275000031  0.6258611800000011  0.8284182550000025
  0.7053135275000031  0.6258611800000011  0.8284182550000025
  0.9553135275000031  0.6258611800000011  0.8284182550000025
  0.1918122074999999  0.0112225949999996  0.1700341800000018
  0.4418122074999999  0.0112225949999996  0.1700341800000018
  0.6918122074999999  0.0112225949999996  0.1700341800000018
  0.9418122074999999  0.0112225949999996  0.1700341800000018
  0.1918122074999999  0.5112225949999996  0.1700341800000018
  0.4418122074999999  0.5112225949999996  0.1700341800000018
  0.6918122074999999  0.5112225949999996  0.1700341800000018
  0.9418122074999999  0.5112225949999996  0.1700341800000018
  0.1918122074999999  0.0112225949999996  0.6700341800000018
  0.4418122074999999  0.0112225949999996  0.6700341800000018
  0.6918122074999999  0.0112225949999996  0.6700341800000018
  0.9418122074999999  0.0112225949999996  0.6700341800000018
  0.1918122074999999  0.5112225949999996  0.6700341800000018
  0.4418122074999999  0.5112225949999996  0.6700341800000018
  0.6918122074999999  0.5112225949999996  0.6700341800000018
  0.9418122074999999  0.5112225949999996  0.6700341800000018
  0.1831877824999992  0.2612225949999996  0.0799657600000003
  0.4331877824999992  0.2612225949999996  0.0799657600000003
  0.6831877824999992  0.2612225949999996  0.0799657600000003
  0.9331877824999992  0.2612225949999996  0.0799657600000003
  0.1831877824999992  0.7612225949999996  0.0799657600000003
  0.4331877824999992  0.7612225949999996  0.0799657600000003
  0.6831877824999992  0.7612225949999996  0.0799657600000003
  0.9331877824999992  0.7612225949999996  0.0799657600000003
  0.1831877824999992  0.2612225949999996  0.5799657600000003
  0.4331877824999992  0.2612225949999996  0.5799657600000003
  0.6831877824999992  0.2612225949999996  0.5799657600000003
  0.9331877824999992  0.2612225949999996  0.5799657600000003
  0.1831877824999992  0.7612225949999996  0.5799657600000003
  0.4331877824999992  0.7612225949999996  0.5799657600000003
  0.6831877824999992  0.7612225949999996  0.5799657600000003
  0.9331877824999992  0.7612225949999996  0.5799657600000003
  0.0581877824999992  0.4887774050000004  0.3299657600000003
  0.3081877824999992  0.4887774050000004  0.3299657600000003
  0.5581877824999992  0.4887774050000004  0.3299657600000003
  0.8081877824999992  0.4887774050000004  0.3299657600000003
  0.0581877824999992  0.9887774050000004  0.3299657600000003
  0.3081877824999992  0.9887774050000004  0.3299657600000003
  0.5581877824999992  0.9887774050000004  0.3299657600000003
  0.8081877824999992  0.9887774050000004  0.3299657600000003
  0.0581877824999992  0.4887774050000004  0.8299657600000003
  0.3081877824999992  0.4887774050000004  0.8299657600000003
  0.5581877824999992  0.4887774050000004  0.8299657600000003
  0.8081877824999992  0.4887774050000004  0.8299657600000003
  0.0581877824999992  0.9887774050000004  0.8299657600000003
  0.3081877824999992  0.9887774050000004  0.8299657600000003
  0.5581877824999992  0.9887774050000004  0.8299657600000003
  0.8081877824999992  0.9887774050000004  0.8299657600000003
  0.0668122074999999  0.2387774050000004  0.4200341800000018
  0.3168122074999999  0.2387774050000004  0.4200341800000018
  0.5668122074999999  0.2387774050000004  0.4200341800000018
  0.8168122074999999  0.2387774050000004  0.4200341800000018
  0.0668122074999999  0.7387774050000004  0.4200341800000018
  0.3168122074999999  0.7387774050000004  0.4200341800000018
  0.5668122074999999  0.7387774050000004  0.4200341800000018
  0.8168122074999999  0.7387774050000004  0.4200341800000018
  0.0668122074999999  0.2387774050000004  0.9200341800000018
  0.3168122074999999  0.2387774050000004  0.9200341800000018
  0.5668122074999999  0.2387774050000004  0.9200341800000018
  0.8168122074999999  0.2387774050000004  0.9200341800000018
  0.0668122074999999  0.7387774050000004  0.9200341800000018
  0.3168122074999999  0.7387774050000004  0.9200341800000018
  0.5668122074999999  0.7387774050000004  0.9200341800000018
  0.8168122074999999  0.7387774050000004  0.9200341800000018
  0.0560851174999968  0.1803724950000003  0.2335195049999967
  0.3060851174999968  0.1803724950000003  0.2335195049999967
  0.5560851174999968  0.1803724950000003  0.2335195049999967
  0.8060851174999968  0.1803724950000003  0.2335195049999967
  0.0560851174999968  0.6803724950000003  0.2335195049999967
  0.3060851174999968  0.6803724950000003  0.2335195049999967
  0.5560851174999968  0.6803724950000003  0.2335195049999967
  0.8060851174999968  0.6803724950000003  0.2335195049999967
  0.0560851174999968  0.1803724950000003  0.7335195049999967
  0.3060851174999968  0.1803724950000003  0.7335195049999967
  0.5560851174999968  0.1803724950000003  0.7335195049999967
  0.8060851174999968  0.1803724950000003  0.7335195049999967
  0.0560851174999968  0.6803724950000003  0.7335195049999967
  0.3060851174999968  0.6803724950000003  0.7335195049999967
  0.5560851174999968  0.6803724950000003  0.7335195049999967
  0.8060851174999968  0.6803724950000003  0.7335195049999967
  0.0689148700000004  0.4303724950000003  0.0164804349999983
  0.3189148700000004  0.4303724950000003  0.0164804349999983
  0.5689148700000004  0.4303724950000003  0.0164804349999983
  0.8189148700000004  0.4303724950000003  0.0164804349999983
  0.0689148700000004  0.9303724950000003  0.0164804349999983
  0.3189148700000004  0.9303724950000003  0.0164804349999983
  0.5689148700000004  0.9303724950000003  0.0164804349999983
  0.8189148700000004  0.9303724950000003  0.0164804349999983
  0.0689148700000004  0.4303724950000003  0.5164804349999983
  0.3189148700000004  0.4303724950000003  0.5164804349999983
  0.5689148700000004  0.4303724950000003  0.5164804349999983
  0.8189148700000004  0.4303724950000003  0.5164804349999983
  0.0689148700000004  0.9303724950000003  0.5164804349999983
  0.3189148700000004  0.9303724950000003  0.5164804349999983
  0.5689148700000004  0.9303724950000003  0.5164804349999983
  0.8189148700000004  0.9303724950000003  0.5164804349999983
  0.1939148700000004  0.3196275049999997  0.2664804349999983
  0.4439148700000004  0.3196275049999997  0.2664804349999983
  0.6939148700000004  0.3196275049999997  0.2664804349999983
  0.9439148700000004  0.3196275049999997  0.2664804349999983
  0.1939148700000004  0.8196275049999997  0.2664804349999983
  0.4439148700000004  0.8196275049999997  0.2664804349999983
  0.6939148700000004  0.8196275049999997  0.2664804349999983
  0.9439148700000004  0.8196275049999997  0.2664804349999983
  0.1939148700000004  0.3196275049999997  0.7664804349999983
  0.4439148700000004  0.3196275049999997  0.7664804349999983
  0.6939148700000004  0.3196275049999997  0.7664804349999983
  0.9439148700000004  0.3196275049999997  0.7664804349999983
  0.1939148700000004  0.8196275049999997  0.7664804349999983
  0.4439148700000004  0.8196275049999997  0.7664804349999983
  0.6939148700000004  0.8196275049999997  0.7664804349999983
  0.9439148700000004  0.8196275049999997  0.7664804349999983
  0.1810851174999968  0.0696275049999997  0.4835195049999967
  0.4310851174999968  0.0696275049999997  0.4835195049999967
  0.6810851174999968  0.0696275049999997  0.4835195049999967
  0.9310851174999968  0.0696275049999997  0.4835195049999967
  0.1810851174999968  0.5696275049999997  0.4835195049999967
  0.4310851174999968  0.5696275049999997  0.4835195049999967
  0.6810851174999968  0.5696275049999997  0.4835195049999967
  0.9310851174999968  0.5696275049999997  0.4835195049999967
  0.1810851174999968  0.0696275049999997  0.9835195049999967
  0.4310851174999968  0.0696275049999997  0.9835195049999967
  0.6810851174999968  0.0696275049999997  0.9835195049999967
  0.9310851174999968  0.0696275049999997  0.9835195049999967
  0.1810851174999968  0.5696275049999997  0.9835195049999967
  0.4310851174999968  0.5696275049999997  0.9835195049999967
  0.6810851174999968  0.5696275049999997  0.9835195049999967
  0.9310851174999968  0.5696275049999997  0.9835195049999967
 
  0.00000000E+00  0.00000000E+00  0.00000000E+00
  0.00000000E+00  0.00000000E+00  0.00000000E+00
  0.00000000E+00  0.00000000E+00  0.00000000E+00
  0.00000000E+00  0.00000000E+00  0.00000000E+00
  0.00000000E+00  0.00000000E+00  0.00000000E+00
  0.00000000E+00  0.00000000E+00  0.00000000E+00
  0.00000000E+00  0.00000000E+00  0.00000000E+00
  0.00000000E+00  0.00000000E+00  0.00000000E+00
  0.00000000E+00  0.00000000E+00  0.00000000E+00
  0.00000000E+00  0.00000000E+00  0.00000000E+00
  0.00000000E+00  0.00000000E+00  0.00000000E+00
  0.00000000E+00  0.00000000E+00  0.00000000E+00
  0.00000000E+00  0.00000000E+00  0.00000000E+00
  0.00000000E+00  0.00000000E+00  0.00000000E+00
  0.00000000E+00  0.00000000E+00  0.00000000E+00
  0.00000000E+00  0.00000000E+00  0.00000000E+00
  0.00000000E+00  0.00000000E+00  0.00000000E+00
  0.00000000E+00  0.00000000E+00  0.00000000E+00
  0.00000000E+00  0.00000000E+00  0.00000000E+00
  0.00000000E+00  0.00000000E+00  0.00000000E+00
  0.00000000E+00  0.00000000E+00  0.00000000E+00
  0.00000000E+00  0.00000000E+00  0.00000000E+00
  0.00000000E+00  0.00000000E+00  0.00000000E+00
  0.00000000E+00  0.00000000E+00  0.00000000E+00
  0.00000000E+00  0.00000000E+00  0.00000000E+00
  0.00000000E+00  0.00000000E+00  0.00000000E+00
  0.00000000E+00  0.00000000E+00  0.00000000E+00
  0.00000000E+00  0.00000000E+00  0.00000000E+00
  0.00000000E+00  0.00000000E+00  0.00000000E+00
  0.00000000E+00  0.00000000E+00  0.00000000E+00
  0.00000000E+00  0.00000000E+00  0.00000000E+00
  0.00000000E+00  0.00000000E+00  0.00000000E+00
  0.00000000E+00  0.00000000E+00  0.00000000E+00
  0.00000000E+00  0.00000000E+00  0.00000000E+00
  0.00000000E+00  0.00000000E+00  0.00000000E+00
  0.00000000E+00  0.00000000E+00  0.00000000E+00
  0.00000000E+00  0.00000000E+00  0.00000000E+00
  0.00000000E+00  0.00000000E+00  0.00000000E+00
  0.00000000E+00  0.00000000E+00  0.00000000E+00
  0.00000000E+00  0.00000000E+00  0.00000000E+00
  0.00000000E+00  0.00000000E+00  0.00000000E+00
  0.00000000E+00  0.00000000E+00  0.00000000E+00
  0.00000000E+00  0.00000000E+00  0.00000000E+00
  0.00000000E+00  0.00000000E+00  0.00000000E+00
  0.00000000E+00  0.00000000E+00  0.00000000E+00
  0.00000000E+00  0.00000000E+00  0.00000000E+00
  0.00000000E+00  0.00000000E+00  0.00000000E+00
  0.00000000E+00  0.00000000E+00  0.00000000E+00
  0.00000000E+00  0.00000000E+00  0.00000000E+00
  0.00000000E+00  0.00000000E+00  0.00000000E+00
  0.00000000E+00  0.00000000E+00  0.00000000E+00
  0.00000000E+00  0.00000000E+00  0.00000000E+00
  0.00000000E+00  0.00000000E+00  0.00000000E+00
  0.00000000E+00  0.00000000E+00  0.00000000E+00
  0.00000000E+00  0.00000000E+00  0.00000000E+00
  0.00000000E+00  0.00000000E+00  0.00000000E+00
  0.00000000E+00  0.00000000E+00  0.00000000E+00
  0.00000000E+00  0.00000000E+00  0.00000000E+00
  0.00000000E+00  0.00000000E+00  0.00000000E+00
  0.00000000E+00  0.00000000E+00  0.00000000E+00
  0.00000000E+00  0.00000000E+00  0.00000000E+00
  0.00000000E+00  0.00000000E+00  0.00000000E+00
  0.00000000E+00  0.00000000E+00  0.00000000E+00
  0.00000000E+00  0.00000000E+00  0.00000000E+00
  0.00000000E+00  0.00000000E+00  0.00000000E+00
  0.00000000E+00  0.00000000E+00  0.00000000E+00
  0.00000000E+00  0.00000000E+00  0.00000000E+00
  0.00000000E+00  0.00000000E+00  0.00000000E+00
  0.00000000E+00  0.00000000E+00  0.00000000E+00
  0.00000000E+00  0.00000000E+00  0.00000000E+00
  0.00000000E+00  0.00000000E+00  0.00000000E+00
  0.00000000E+00  0.00000000E+00  0.00000000E+00
  0.00000000E+00  0.00000000E+00  0.00000000E+00
  0.00000000E+00  0.00000000E+00  0.00000000E+00
  0.00000000E+00  0.00000000E+00  0.00000000E+00
  0.00000000E+00  0.00000000E+00  0.00000000E+00
  0.00000000E+00  0.00000000E+00  0.00000000E+00
  0.00000000E+00  0.00000000E+00  0.00000000E+00
  0.00000000E+00  0.00000000E+00  0.00000000E+00
  0.00000000E+00  0.00000000E+00  0.00000000E+00
  0.00000000E+00  0.00000000E+00  0.00000000E+00
  0.00000000E+00  0.00000000E+00  0.00000000E+00
  0.00000000E+00  0.00000000E+00  0.00000000E+00
  0.00000000E+00  0.00000000E+00  0.00000000E+00
  0.00000000E+00  0.00000000E+00  0.00000000E+00
  0.00000000E+00  0.00000000E+00  0.00000000E+00
  0.00000000E+00  0.00000000E+00  0.00000000E+00
  0.00000000E+00  0.00000000E+00  0.00000000E+00
  0.00000000E+00  0.00000000E+00  0.00000000E+00
  0.00000000E+00  0.00000000E+00  0.00000000E+00
  0.00000000E+00  0.00000000E+00  0.00000000E+00
  0.00000000E+00  0.00000000E+00  0.00000000E+00
  0.00000000E+00  0.00000000E+00  0.00000000E+00
  0.00000000E+00  0.00000000E+00  0.00000000E+00
  0.00000000E+00  0.00000000E+00  0.00000000E+00
  0.00000000E+00  0.00000000E+00  0.00000000E+00
  0.00000000E+00  0.00000000E+00  0.00000000E+00
  0.00000000E+00  0.00000000E+00  0.00000000E+00
  0.00000000E+00  0.00000000E+00  0.00000000E+00
  0.00000000E+00  0.00000000E+00  0.00000000E+00
  0.00000000E+00  0.00000000E+00  0.00000000E+00
  0.00000000E+00  0.00000000E+00  0.00000000E+00
  0.00000000E+00  0.00000000E+00  0.00000000E+00
  0.00000000E+00  0.00000000E+00  0.00000000E+00
  0.00000000E+00  0.00000000E+00  0.00000000E+00
  0.00000000E+00  0.00000000E+00  0.00000000E+00
  0.00000000E+00  0.00000000E+00  0.00000000E+00
  0.00000000E+00  0.00000000E+00  0.00000000E+00
  0.00000000E+00  0.00000000E+00  0.00000000E+00
  0.00000000E+00  0.00000000E+00  0.00000000E+00
  0.00000000E+00  0.00000000E+00  0.00000000E+00
  0.00000000E+00  0.00000000E+00  0.00000000E+00
  0.00000000E+00  0.00000000E+00  0.00000000E+00
  0.00000000E+00  0.00000000E+00  0.00000000E+00
  0.00000000E+00  0.00000000E+00  0.00000000E+00
  0.00000000E+00  0.00000000E+00  0.00000000E+00
  0.00000000E+00  0.00000000E+00  0.00000000E+00
  0.00000000E+00  0.00000000E+00  0.00000000E+00
  0.00000000E+00  0.00000000E+00  0.00000000E+00
  0.00000000E+00  0.00000000E+00  0.00000000E+00
  0.00000000E+00  0.00000000E+00  0.00000000E+00
  0.00000000E+00  0.00000000E+00  0.00000000E+00
  0.00000000E+00  0.00000000E+00  0.00000000E+00
  0.00000000E+00  0.00000000E+00  0.00000000E+00
  0.00000000E+00  0.00000000E+00  0.00000000E+00
  0.00000000E+00  0.00000000E+00  0.00000000E+00
  0.00000000E+00  0.00000000E+00  0.00000000E+00
  0.00000000E+00  0.00000000E+00  0.00000000E+00
  0.00000000E+00  0.00000000E+00  0.00000000E+00
  0.00000000E+00  0.00000000E+00  0.00000000E+00
  0.00000000E+00  0.00000000E+00  0.00000000E+00
  0.00000000E+00  0.00000000E+00  0.00000000E+00
  0.00000000E+00  0.00000000E+00  0.00000000E+00
  0.00000000E+00  0.00000000E+00  0.00000000E+00
  0.00000000E+00  0.00000000E+00  0.00000000E+00
  0.00000000E+00  0.00000000E+00  0.00000000E+00
  0.00000000E+00  0.00000000E+00  0.00000000E+00
  0.00000000E+00  0.00000000E+00  0.00000000E+00
  0.00000000E+00  0.00000000E+00  0.00000000E+00
  0.00000000E+00  0.00000000E+00  0.00000000E+00
  0.00000000E+00  0.00000000E+00  0.00000000E+00
  0.00000000E+00  0.00000000E+00  0.00000000E+00
  0.00000000E+00  0.00000000E+00  0.00000000E+00
  0.00000000E+00  0.00000000E+00  0.00000000E+00
  0.00000000E+00  0.00000000E+00  0.00000000E+00
  0.00000000E+00  0.00000000E+00  0.00000000E+00
  0.00000000E+00  0.00000000E+00  0.00000000E+00
  0.00000000E+00  0.00000000E+00  0.00000000E+00
  0.00000000E+00  0.00000000E+00  0.00000000E+00
  0.00000000E+00  0.00000000E+00  0.00000000E+00
  0.00000000E+00  0.00000000E+00  0.00000000E+00
  0.00000000E+00  0.00000000E+00  0.00000000E+00
  0.00000000E+00  0.00000000E+00  0.00000000E+00
  0.00000000E+00  0.00000000E+00  0.00000000E+00
  0.00000000E+00  0.00000000E+00  0.00000000E+00
  0.00000000E+00  0.00000000E+00  0.00000000E+00
  0.00000000E+00  0.00000000E+00  0.00000000E+00
  0.00000000E+00  0.00000000E+00  0.00000000E+00
  0.00000000E+00  0.00000000E+00  0.00000000E+00
  0.00000000E+00  0.00000000E+00  0.00000000E+00
  0.00000000E+00  0.00000000E+00  0.00000000E+00
  0.00000000E+00  0.00000000E+00  0.00000000E+00
  0.00000000E+00  0.00000000E+00  0.00000000E+00
  0.00000000E+00  0.00000000E+00  0.00000000E+00
  0.00000000E+00  0.00000000E+00  0.00000000E+00
  0.00000000E+00  0.00000000E+00  0.00000000E+00
  0.00000000E+00  0.00000000E+00  0.00000000E+00
  0.00000000E+00  0.00000000E+00  0.00000000E+00
  0.00000000E+00  0.00000000E+00  0.00000000E+00
  0.00000000E+00  0.00000000E+00  0.00000000E+00
  0.00000000E+00  0.00000000E+00  0.00000000E+00
  0.00000000E+00  0.00000000E+00  0.00000000E+00
  0.00000000E+00  0.00000000E+00  0.00000000E+00
  0.00000000E+00  0.00000000E+00  0.00000000E+00
  0.00000000E+00  0.00000000E+00  0.00000000E+00
  0.00000000E+00  0.00000000E+00  0.00000000E+00
  0.00000000E+00  0.00000000E+00  0.00000000E+00
  0.00000000E+00  0.00000000E+00  0.00000000E+00
  0.00000000E+00  0.00000000E+00  0.00000000E+00
  0.00000000E+00  0.00000000E+00  0.00000000E+00
  0.00000000E+00  0.00000000E+00  0.00000000E+00
  0.00000000E+00  0.00000000E+00  0.00000000E+00
  0.00000000E+00  0.00000000E+00  0.00000000E+00
  0.00000000E+00  0.00000000E+00  0.00000000E+00
  0.00000000E+00  0.00000000E+00  0.00000000E+00
  0.00000000E+00  0.00000000E+00  0.00000000E+00
  0.00000000E+00  0.00000000E+00  0.00000000E+00
  0.00000000E+00  0.00000000E+00  0.00000000E+00
  0.00000000E+00  0.00000000E+00  0.00000000E+00
  0.00000000E+00  0.00000000E+00  0.00000000E+00
  0.00000000E+00  0.00000000E+00  0.00000000E+00
  0.00000000E+00  0.00000000E+00  0.00000000E+00
