#######################################################
#CASTEP cell file: Ag2Se-20200927.cell
#Created using the Atomic Simulation Environment (ASE)#
#######################################################

%BLOCK LATTICE_CART
 4.318263  0.000000  0.000000
 0.000000  7.032996  0.000000
-1.624393  0.000000  8.076244
%ENDBLOCK LATTICE_CART

%BLOCK POSITIONS_ABS
Ag  2.687109  0.182155  2.740269
Ag  2.978089  3.698653  1.297852
Ag  0.006761  6.850841  5.335974
Ag -0.284220  3.334343  6.778391
Ag  0.319494  2.524142  3.635117
Ag  1.027441  6.040640  0.403005
Ag  2.374376  4.508854  4.441126
Ag  1.666429  0.992356  7.673239
Se  1.200797  1.712535  1.129866
Se  0.146138  5.229033  2.908255
Se  1.493073  5.320461  6.946377
Se  2.547732  1.803963  5.167988
%ENDBLOCK POSITIONS_ABS

 
KPOINTS_MP_SPACING 0.07
 
SYMMETRY_GENERATE
SNAP_TO_SYMMETRY
 
%BLOCK SPECIES_POT
QC5
%ENDBLOCK SPECIES_POT
 
%BLOCK EXTERNAL_PRESSURE
0 0 0
0 0
0
%ENDBLOCK EXTERNAL_PRESSURE
