#              Generated by Buildcell
#
# at 09:14:12 (GMT+1.0) 28th September 2020
# in /home/bonan/Calc-UCL/Ag2Se/run4/seed
# on DESKTOP-EMLNJAS
# by bonan
#
# compiler GCC version 7.5.0
# options -cpp -imultiarch x86_64-linux-gnu -mtune=generic -march=x86-64 -g -Og
#
# seed -2062851981   -78036782 -1428337771 -1502980057  -994552832   502964593  1526993695 -1227474507 -1831729938   205791040 -1394311361   893447633  2092459850   289545094  1861364067  1918794068 -1578230881  1328916259   177372728   640104853 -1224901611  -493580998  1273914434  1106981549  1674452176 -1664043679  -559938795   -36977164  -306156308 -2062189373  1845498939  -597367476 -1108811886
#
#      Author: C. J. Pickard (cjp20@cam.ac.uk)
#                Space group: P21/c
#

%BLOCK LATTICE_ABC
      5.51000      6.87000      7.58000
     90.00000     96.70000     90.00000
%ENDBLOCK LATTICE_ABC

%BLOCK POSITIONS_FRAC
  Ag       -0.3319227        0.1670138       -0.4534733
  Ag       -0.1680773       -0.3329862        0.4534733
  Ag        0.3319227       -0.1670138        0.4534733
  Ag        0.1680773        0.3329862       -0.4534733
  Ag       -0.4122318        0.3329598        0.1158106
  Ag       -0.0877682       -0.1670402       -0.1158106
  Ag        0.4122318       -0.3329598       -0.1158106
  Ag        0.0877682        0.1670402        0.1158106
  Se       -0.2421773        0.4505472       -0.2232389
  Se       -0.2578227       -0.0494528        0.2232389
  Se        0.2421773       -0.4505472        0.2232389
  Se        0.2578227        0.0494528       -0.2232389
%ENDBLOCK POSITIONS_FRAC

KPOINTS_MP_SPACING 0.07

%BLOCK SPECIES_POT
QC5
%ENDBLOCK SPECIES_POT

SNAP_TO_SYMMETRY
SYMMETRY_GENERATE

