ADDGRID = .TRUE.
ALGO = normal
EDIFF = 1e-08
ENCUT = 650
GGA = ps
ISIF = 3
ISMEAR = 0
ISPIN = 1
LASPH = .TRUE.
LEPSILON = .TRUE.
LREAL = .FALSE.
LWAVE = .FALSE.
NELM = 200
NELMIN = 8
PREC = accurate
SIGMA = 0.05
