# Compound: Ag96Se48. Old comment: Ag2Se supercell_12
  1.0000000000
 14.0103959800   0.0013913800   0.0000000000
 -0.0015019600  13.7669109200   0.0000000000
  0.0000000000   0.0000000000  14.5501938600
Ag    Se
   96    48
Direct
  0.4298789800   0.1716707700   0.3324773467
  0.9298789800   0.1716707700   0.3324773467
  0.4298789800   0.6716707700   0.3324773467
  0.9298789800   0.6716707700   0.3324773467
  0.4298789800   0.1716707700   0.6658106800
  0.9298789800   0.1716707700   0.6658106800
  0.4298789800   0.6716707700   0.6658106800
  0.9298789800   0.6716707700   0.6658106800
  0.4298789800   0.1716707700   0.9991440133
  0.9298789800   0.1716707700   0.9991440133
  0.4298789800   0.6716707700   0.9991440133
  0.9298789800   0.6716707700   0.9991440133
  0.0701210200   0.3283292300   0.3324773467
  0.5701210200   0.3283292300   0.3324773467
  0.0701210200   0.8283292300   0.3324773467
  0.5701210200   0.8283292300   0.3324773467
  0.0701210200   0.3283292300   0.6658106800
  0.5701210200   0.3283292300   0.6658106800
  0.0701210200   0.8283292300   0.6658106800
  0.5701210200   0.8283292300   0.6658106800
  0.0701210200   0.3283292300   0.9991440133
  0.5701210200   0.3283292300   0.9991440133
  0.0701210200   0.8283292300   0.9991440133
  0.5701210200   0.8283292300   0.9991440133
  0.3201205250   0.4216736700   0.0557234706
  0.8201205250   0.4216736700   0.0564107467
  0.3201205250   0.9216736700   0.0564107467
  0.8201205250   0.9216736700   0.0564107467
  0.3201205250   0.4216736700   0.3897440800
  0.8201205250   0.4216736700   0.3897440800
  0.3201205250   0.9216736700   0.3897440800
  0.8201205250   0.9216736700   0.3897440800
  0.3201205250   0.4216736700   0.7230774133
  0.8201205250   0.4216736700   0.7230774133
  0.3201205250   0.9216736700   0.7230774133
  0.8201205250   0.9216736700   0.7230774133
  0.1798794750   0.0783263300   0.0564107467
  0.6798794750   0.0783263300   0.0564107467
  0.1798794750   0.5783263300   0.0564107467
  0.6798794750   0.5783263300   0.0564107467
  0.1798794750   0.0783263300   0.3897440800
  0.6798794750   0.0783263300   0.3897440800
  0.1798794750   0.5783263300   0.3897440800
  0.6798794750   0.5783263300   0.3897440800
  0.1798794750   0.0783263300   0.7230774133
  0.6798794750   0.0783263300   0.7230774133
  0.1798794750   0.5783263300   0.7230774133
  0.6798794750   0.5783263300   0.7230774133
  0.1798777600   0.3283236900   0.1658085567
  0.6798777600   0.3283236900   0.1658085567
  0.1798777600   0.8283236900   0.1658085567
  0.6798777600   0.8283236900   0.1658085567
  0.1798777600   0.3283236900   0.4991418900
  0.6798777600   0.3283236900   0.4991418900
  0.1798777600   0.8283236900   0.4991418900
  0.6798777600   0.8283236900   0.4991418900
  0.1798777600   0.3283236900   0.8324752233
  0.6798777600   0.3283236900   0.8324752233
  0.1798777600   0.8283236900   0.8324752233
  0.6798777600   0.8283236900   0.8324752233
  0.3201222400   0.1716763100   0.1658085567
  0.8201222400   0.1716763100   0.1658085567
  0.3201222400   0.6716763100   0.1658085567
  0.8201222400   0.6716763100   0.1658085567
  0.3201222400   0.1716763100   0.4991418900
  0.8201222400   0.1716763100   0.4991418900
  0.3201222400   0.6716763100   0.4991418900
  0.8201222400   0.6716763100   0.4991418900
  0.3201222400   0.1716763100   0.8324752233
  0.8201222400   0.1716763100   0.8324752233
  0.3201222400   0.6716763100   0.8324752233
  0.8201222400   0.6716763100   0.8324752233
  0.4298765600   0.4216749450   0.2230799967
  0.9298765600   0.4216749450   0.2230799967
  0.4298765600   0.9216749450   0.2230799967
  0.9298765600   0.9216749450   0.2230799967
  0.4298765600   0.4216749450   0.5564133300
  0.9298765600   0.4216749450   0.5564133300
  0.4298765600   0.9216749450   0.5564133300
  0.9298765600   0.9216749450   0.5564133300
  0.4298765600   0.4216749450   0.8897466633
  0.9298765600   0.4216749450   0.8897466633
  0.4298765600   0.9216749450   0.8897466633
  0.9298765600   0.9216749450   0.8897466633
  0.0701234400   0.0783250550   0.2230799967
  0.5701234400   0.0783250550   0.2230799967
  0.0701234400   0.5783250550   0.2230799967
  0.5701234400   0.5783250550   0.2230799967
  0.0701234400   0.0783250550   0.5564133300
  0.5701234400   0.0783250550   0.5564133300
  0.0701234400   0.5783250550   0.5564133300
  0.5701234400   0.5783250550   0.5564133300
  0.0701234400   0.0783250550   0.8897466633
  0.5701234400   0.0783250550   0.8897466633
  0.0701234400   0.5783250550   0.8897466633
  0.5701234400   0.5783250550   0.8897466633
  0.0000000000   0.0000000000   0.0547936500
  0.5000000000   0.0000000000   0.0547936500
  0.0000000000   0.5000000000   0.0547936500
  0.5000000000   0.5000000000   0.0547936500
  0.0000000000   0.0000000000   0.3881269833
  0.5000000000   0.0000000000   0.3881269833
  0.0000000000   0.5000000000   0.3881269833
  0.5000000000   0.5000000000   0.3881269833
  0.0000000000   0.0000000000   0.7214603167
  0.5000000000   0.0000000000   0.7214603167
  0.0000000000   0.5000000000   0.7214603167
  0.5000000000   0.5000000000   0.7214603167
  0.2500000000   1.0000000000   0.2214520600
  0.7500000000   1.0000000000   0.2214520600
  0.2500000000   0.5000000000   0.2214520600
  0.7500000000   0.5000000000   0.2214520600
  0.2500000000   1.0000000000   0.5547853933
  0.7500000000   1.0000000000   0.5547853933
  0.2500000000   0.5000000000   0.5547853933
  0.7500000000   0.5000000000   0.5547853933
  0.2500000000   1.0000000000   0.8881187267
  0.7500000000   1.0000000000   0.8881187267
  0.2500000000   0.5000000000   0.8881187267
  0.7500000000   0.5000000000   0.8881187267
  0.0000000000   0.2500000000   0.1674376867
  0.5000000000   0.2500000000   0.1674376867
  0.0000000000   0.7500000000   0.1674376867
  0.5000000000   0.7500000000   0.1674376867
  0.0000000000   0.2500000000   0.5007710200
  0.5000000000   0.2500000000   0.5007710200
  0.0000000000   0.7500000000   0.5007710200
  0.5000000000   0.7500000000   0.5007710200
  0.0000000000   0.2500000000   0.8341043533
  0.5000000000   0.2500000000   0.8341043533
  0.0000000000   0.7500000000   0.8341043533
  0.5000000000   0.7500000000   0.8341043533
  0.2500000000   0.2500000000   0.0007633200
  0.7500000000   0.2500000000   0.0007633200
  0.2500000000   0.7500000000   0.0007633200
  0.7500000000   0.7500000000   0.0007633200
  0.2500000000   0.2500000000   0.3340966533
  0.7500000000   0.2500000000   0.3340966533
  0.2500000000   0.7500000000   0.3340966533
  0.7500000000   0.7500000000   0.3340966533
  0.2500000000   0.2500000000   0.6674299867
  0.7500000000   0.2500000000   0.6674299867
  0.2500000000   0.7500000000   0.6674299867
  0.7500000000   0.7500000000   0.6674299867
