## Ag2Se based on the cdc455 structure - generate structures that are similar to it
## Use:
## - fixed cell size to enforce the tetragonal unit cell
## - MINSEP based on the cdc455 structure
## - Relax the crystal system constraint since now the cell is tegragonal to start with
## - Turn on ADJGEN to enhance the symmetry exploration
%BLOCK LATTICE_CART
7.0 0 0
0 7.0 0
0 0 5.0
#FIX
%ENDBLOCK LATTICE_CART


%BLOCK POSITIONS_FRAC
Ag 0.0 0.0 0.0 # Ag1 % NUM=8
Se 0.0 0.0 0.0 # Se1 % NUM=4
%ENDBLOCK POSITIONS_FRAC

##SPECIES=Ag,Se
##NATOM=3-9
##FOCUS=2
 
#SYMMOPS=1-4
##SGRANK=20
#NFORM=1
#ADJGEN=0-1
#SLACK=0.25
#OVERLAP=0.1
#MINSEP=1.0 Se-Se=3.8-4.2 Se-Ag=2.30-2.70 Ag-Ag=2.60-3.00
#COMPACT
#CELLADAPT
##SYSTEM={Rhom,Tric,Mono,Cubi,Hexa,Orth,Tetra}
 
KPOINTS_MP_SPACING 0.07
 
SYMMETRY_GENERATE
SNAP_TO_SYMMETRY
 
%BLOCK SPECIES_POT
QC5
%ENDBLOCK SPECIES_POT
 
%BLOCK EXTERNAL_PRESSURE
0 0 0
0 0
0
%ENDBLOCK EXTERNAL_PRESSURE
