# Compound: Ag96Se48. Old comment: Ag2Se
   1.00000000000000     
    14.0103959800000002    0.0013913800000000    0.0000000000000000
    -0.0015019600000000   13.7669109200000008    0.0000000000000000
     0.0000000000000000    0.0000000000000000   14.5501938600000003
   Ag   Se
    96    48
Direct
  0.4298789799999980  0.1716707699999986  0.3324773467000028
  0.9298789799999980  0.1716707699999986  0.3324773467000028
  0.4298789799999980  0.6716707699999986  0.3324773467000028
  0.9298789799999980  0.6716707699999986  0.3324773467000028
  0.4298789799999980  0.1716707699999986  0.6658106799999999
  0.9298789799999980  0.1716707699999986  0.6658106799999999
  0.4298789799999980  0.6716707699999986  0.6658106799999999
  0.9298789799999980  0.6716707699999986  0.6658106799999999
  0.4298789799999980  0.1716707699999986  0.9991440132999969
  0.9298789799999980  0.1716707699999986  0.9991440132999969
  0.4298789799999980  0.6716707699999986  0.9991440132999969
  0.9298789799999980  0.6716707699999986  0.9991440132999969
  0.0701210200000020  0.3283292300000014  0.3324773467000028
  0.5701210200000020  0.3283292300000014  0.3324773467000028
  0.0701210200000020  0.8283292300000014  0.3324773467000028
  0.5701210200000020  0.8283292300000014  0.3324773467000028
  0.0701210200000020  0.3283292300000014  0.6658106799999999
  0.5701210200000020  0.3283292300000014  0.6658106799999999
  0.0701210200000020  0.8283292300000014  0.6658106799999999
  0.5701210200000020  0.8283292300000014  0.6658106799999999
  0.0701210200000020  0.3283292300000014  0.9991440132999969
  0.5701210200000020  0.3283292300000014  0.9991440132999969
  0.0701210200000020  0.8283292300000014  0.9991440132999969
  0.5701210200000020  0.8283292300000014  0.9991440132999969
  0.3201205250000001  0.4216736699999970  0.0564107467000028
  0.8201205250000001  0.4216736699999970  0.0564107467000028
  0.3201205250000001  0.9216736699999970  0.0564107467000028
  0.8201205250000001  0.9216736699999970  0.0564107467000028
  0.3201205250000001  0.4216736699999970  0.3897440799999998
  0.8201205250000001  0.4216736699999970  0.3897440799999998
  0.3201205250000001  0.9216736699999970  0.3897440799999998
  0.8201205250000001  0.9216736699999970  0.3897440799999998
  0.3201205250000001  0.4216736699999970  0.7230774132999969
  0.8201205250000001  0.4216736699999970  0.7230774132999969
  0.3201205250000001  0.9216736699999970  0.7230774132999969
  0.8201205250000001  0.9216736699999970  0.7230774132999969
  0.1798794749999999  0.0783263300000030  0.0564107467000028
  0.6798794749999999  0.0783263300000030  0.0564107467000028
  0.1798794749999999  0.5783263300000030  0.0564107467000028
  0.6798794749999999  0.5783263300000030  0.0564107467000028
  0.1798794749999999  0.0783263300000030  0.3897440799999998
  0.6798794749999999  0.0783263300000030  0.3897440799999998
  0.1798794749999999  0.5783263300000030  0.3897440799999998
  0.6798794749999999  0.5783263300000030  0.3897440799999998
  0.1798794749999999  0.0783263300000030  0.7230774132999969
  0.6798794749999999  0.0783263300000030  0.7230774132999969
  0.1798794749999999  0.5783263300000030  0.7230774132999969
  0.6798794749999999  0.5783263300000030  0.7230774132999969
  0.1798777599999966  0.3283236899999977  0.1664958327000008
  0.6798777599999966  0.3283236899999977  0.1658085567000001
  0.1798777599999966  0.8283236899999977  0.1658085567000001
  0.6798777599999966  0.8283236899999977  0.1658085567000001
  0.1798777599999966  0.3283236899999977  0.4991418899999971
  0.6798777599999966  0.3283236899999977  0.4991418899999971
  0.1798777599999966  0.8283236899999977  0.4991418899999971
  0.6798777599999966  0.8283236899999977  0.4991418899999971
  0.1798777599999966  0.3283236899999977  0.8324752233000012
  0.6798777599999966  0.3283236899999977  0.8324752233000012
  0.1798777599999966  0.8283236899999977  0.8324752233000012
  0.6798777599999966  0.8283236899999977  0.8324752233000012
  0.3201222400000034  0.1716763100000023  0.1658085567000001
  0.8201222400000034  0.1716763100000023  0.1658085567000001
  0.3201222400000034  0.6716763100000023  0.1658085567000001
  0.8201222400000034  0.6716763100000023  0.1658085567000001
  0.3201222400000034  0.1716763100000023  0.4991418899999971
  0.8201222400000034  0.1716763100000023  0.4991418899999971
  0.3201222400000034  0.6716763100000023  0.4991418899999971
  0.8201222400000034  0.6716763100000023  0.4991418899999971
  0.3201222400000034  0.1716763100000023  0.8324752233000012
  0.8201222400000034  0.1716763100000023  0.8324752233000012
  0.3201222400000034  0.6716763100000023  0.8324752233000012
  0.8201222400000034  0.6716763100000023  0.8324752233000012
  0.4298765599999967  0.4216749449999995  0.2230799967000010
  0.9298765599999967  0.4216749449999995  0.2230799967000010
  0.4298765599999967  0.9216749449999995  0.2230799967000010
  0.9298765599999967  0.9216749449999995  0.2230799967000010
  0.4298765599999967  0.4216749449999995  0.5564133299999980
  0.9298765599999967  0.4216749449999995  0.5564133299999980
  0.4298765599999967  0.9216749449999995  0.5564133299999980
  0.9298765599999967  0.9216749449999995  0.5564133299999980
  0.4298765599999967  0.4216749449999995  0.8897466633000022
  0.9298765599999967  0.4216749449999995  0.8897466633000022
  0.4298765599999967  0.9216749449999995  0.8897466633000022
  0.9298765599999967  0.9216749449999995  0.8897466633000022
  0.0701234400000033  0.0783250550000005  0.2230799967000010
  0.5701234400000033  0.0783250550000005  0.2230799967000010
  0.0701234400000033  0.5783250550000005  0.2230799967000010
  0.5701234400000033  0.5783250550000005  0.2230799967000010
  0.0701234400000033  0.0783250550000005  0.5564133299999980
  0.5701234400000033  0.0783250550000005  0.5564133299999980
  0.0701234400000033  0.5783250550000005  0.5564133299999980
  0.5701234400000033  0.5783250550000005  0.5564133299999980
  0.0701234400000033  0.0783250550000005  0.8897466633000022
  0.5701234400000033  0.0783250550000005  0.8897466633000022
  0.0701234400000033  0.5783250550000005  0.8897466633000022
  0.5701234400000033  0.5783250550000005  0.8897466633000022
  0.0000000000000000  0.0000000000000000  0.0547936500000006
  0.5000000000000000  0.0000000000000000  0.0547936500000006
  0.0000000000000000  0.5000000000000000  0.0547936500000006
  0.5000000000000000  0.5000000000000000  0.0547936500000006
  0.0000000000000000  0.0000000000000000  0.3881269832999976
  0.5000000000000000  0.0000000000000000  0.3881269832999976
  0.0000000000000000  0.5000000000000000  0.3881269832999976
  0.5000000000000000  0.5000000000000000  0.3881269832999976
  0.0000000000000000  0.0000000000000000  0.7214603167000035
  0.5000000000000000  0.0000000000000000  0.7214603167000035
  0.0000000000000000  0.5000000000000000  0.7214603167000035
  0.5000000000000000  0.5000000000000000  0.7214603167000035
  0.2500000000000000  0.0000000000000000  0.2214520599999972
  0.7500000000000000  0.0000000000000000  0.2214520599999972
  0.2500000000000000  0.5000000000000000  0.2214520599999972
  0.7500000000000000  0.5000000000000000  0.2214520599999972
  0.2500000000000000  0.0000000000000000  0.5547853933000013
  0.7500000000000000  0.0000000000000000  0.5547853933000013
  0.2500000000000000  0.5000000000000000  0.5547853933000013
  0.7500000000000000  0.5000000000000000  0.5547853933000013
  0.2500000000000000  0.0000000000000000  0.8881187267000001
  0.7500000000000000  0.0000000000000000  0.8881187267000001
  0.2500000000000000  0.5000000000000000  0.8881187267000001
  0.7500000000000000  0.5000000000000000  0.8881187267000001
  0.0000000000000000  0.2500000000000000  0.1674376866999978
  0.5000000000000000  0.2500000000000000  0.1674376866999978
  0.0000000000000000  0.7500000000000000  0.1674376866999978
  0.5000000000000000  0.7500000000000000  0.1674376866999978
  0.0000000000000000  0.2500000000000000  0.5007710200000020
  0.5000000000000000  0.2500000000000000  0.5007710200000020
  0.0000000000000000  0.7500000000000000  0.5007710200000020
  0.5000000000000000  0.7500000000000000  0.5007710200000020
  0.0000000000000000  0.2500000000000000  0.8341043532999990
  0.5000000000000000  0.2500000000000000  0.8341043532999990
  0.0000000000000000  0.7500000000000000  0.8341043532999990
  0.5000000000000000  0.7500000000000000  0.8341043532999990
  0.2500000000000000  0.2500000000000000  0.0007633199999972
  0.7500000000000000  0.2500000000000000  0.0007633199999972
  0.2500000000000000  0.7500000000000000  0.0007633199999972
  0.7500000000000000  0.7500000000000000  0.0007633199999972
  0.2500000000000000  0.2500000000000000  0.3340966533000014
  0.7500000000000000  0.2500000000000000  0.3340966533000014
  0.2500000000000000  0.7500000000000000  0.3340966533000014
  0.7500000000000000  0.7500000000000000  0.3340966533000014
  0.2500000000000000  0.2500000000000000  0.6674299867000002
  0.7500000000000000  0.2500000000000000  0.6674299867000002
  0.2500000000000000  0.7500000000000000  0.6674299867000002
  0.7500000000000000  0.7500000000000000  0.6674299867000002
 
  0.00000000E+00  0.00000000E+00  0.00000000E+00
  0.00000000E+00  0.00000000E+00  0.00000000E+00
  0.00000000E+00  0.00000000E+00  0.00000000E+00
  0.00000000E+00  0.00000000E+00  0.00000000E+00
  0.00000000E+00  0.00000000E+00  0.00000000E+00
  0.00000000E+00  0.00000000E+00  0.00000000E+00
  0.00000000E+00  0.00000000E+00  0.00000000E+00
  0.00000000E+00  0.00000000E+00  0.00000000E+00
  0.00000000E+00  0.00000000E+00  0.00000000E+00
  0.00000000E+00  0.00000000E+00  0.00000000E+00
  0.00000000E+00  0.00000000E+00  0.00000000E+00
  0.00000000E+00  0.00000000E+00  0.00000000E+00
  0.00000000E+00  0.00000000E+00  0.00000000E+00
  0.00000000E+00  0.00000000E+00  0.00000000E+00
  0.00000000E+00  0.00000000E+00  0.00000000E+00
  0.00000000E+00  0.00000000E+00  0.00000000E+00
  0.00000000E+00  0.00000000E+00  0.00000000E+00
  0.00000000E+00  0.00000000E+00  0.00000000E+00
  0.00000000E+00  0.00000000E+00  0.00000000E+00
  0.00000000E+00  0.00000000E+00  0.00000000E+00
  0.00000000E+00  0.00000000E+00  0.00000000E+00
  0.00000000E+00  0.00000000E+00  0.00000000E+00
  0.00000000E+00  0.00000000E+00  0.00000000E+00
  0.00000000E+00  0.00000000E+00  0.00000000E+00
  0.00000000E+00  0.00000000E+00  0.00000000E+00
  0.00000000E+00  0.00000000E+00  0.00000000E+00
  0.00000000E+00  0.00000000E+00  0.00000000E+00
  0.00000000E+00  0.00000000E+00  0.00000000E+00
  0.00000000E+00  0.00000000E+00  0.00000000E+00
  0.00000000E+00  0.00000000E+00  0.00000000E+00
  0.00000000E+00  0.00000000E+00  0.00000000E+00
  0.00000000E+00  0.00000000E+00  0.00000000E+00
  0.00000000E+00  0.00000000E+00  0.00000000E+00
  0.00000000E+00  0.00000000E+00  0.00000000E+00
  0.00000000E+00  0.00000000E+00  0.00000000E+00
  0.00000000E+00  0.00000000E+00  0.00000000E+00
  0.00000000E+00  0.00000000E+00  0.00000000E+00
  0.00000000E+00  0.00000000E+00  0.00000000E+00
  0.00000000E+00  0.00000000E+00  0.00000000E+00
  0.00000000E+00  0.00000000E+00  0.00000000E+00
  0.00000000E+00  0.00000000E+00  0.00000000E+00
  0.00000000E+00  0.00000000E+00  0.00000000E+00
  0.00000000E+00  0.00000000E+00  0.00000000E+00
  0.00000000E+00  0.00000000E+00  0.00000000E+00
  0.00000000E+00  0.00000000E+00  0.00000000E+00
  0.00000000E+00  0.00000000E+00  0.00000000E+00
  0.00000000E+00  0.00000000E+00  0.00000000E+00
  0.00000000E+00  0.00000000E+00  0.00000000E+00
  0.00000000E+00  0.00000000E+00  0.00000000E+00
  0.00000000E+00  0.00000000E+00  0.00000000E+00
  0.00000000E+00  0.00000000E+00  0.00000000E+00
  0.00000000E+00  0.00000000E+00  0.00000000E+00
  0.00000000E+00  0.00000000E+00  0.00000000E+00
  0.00000000E+00  0.00000000E+00  0.00000000E+00
  0.00000000E+00  0.00000000E+00  0.00000000E+00
  0.00000000E+00  0.00000000E+00  0.00000000E+00
  0.00000000E+00  0.00000000E+00  0.00000000E+00
  0.00000000E+00  0.00000000E+00  0.00000000E+00
  0.00000000E+00  0.00000000E+00  0.00000000E+00
  0.00000000E+00  0.00000000E+00  0.00000000E+00
  0.00000000E+00  0.00000000E+00  0.00000000E+00
  0.00000000E+00  0.00000000E+00  0.00000000E+00
  0.00000000E+00  0.00000000E+00  0.00000000E+00
  0.00000000E+00  0.00000000E+00  0.00000000E+00
  0.00000000E+00  0.00000000E+00  0.00000000E+00
  0.00000000E+00  0.00000000E+00  0.00000000E+00
  0.00000000E+00  0.00000000E+00  0.00000000E+00
  0.00000000E+00  0.00000000E+00  0.00000000E+00
  0.00000000E+00  0.00000000E+00  0.00000000E+00
  0.00000000E+00  0.00000000E+00  0.00000000E+00
  0.00000000E+00  0.00000000E+00  0.00000000E+00
  0.00000000E+00  0.00000000E+00  0.00000000E+00
  0.00000000E+00  0.00000000E+00  0.00000000E+00
  0.00000000E+00  0.00000000E+00  0.00000000E+00
  0.00000000E+00  0.00000000E+00  0.00000000E+00
  0.00000000E+00  0.00000000E+00  0.00000000E+00
  0.00000000E+00  0.00000000E+00  0.00000000E+00
  0.00000000E+00  0.00000000E+00  0.00000000E+00
  0.00000000E+00  0.00000000E+00  0.00000000E+00
  0.00000000E+00  0.00000000E+00  0.00000000E+00
  0.00000000E+00  0.00000000E+00  0.00000000E+00
  0.00000000E+00  0.00000000E+00  0.00000000E+00
  0.00000000E+00  0.00000000E+00  0.00000000E+00
  0.00000000E+00  0.00000000E+00  0.00000000E+00
  0.00000000E+00  0.00000000E+00  0.00000000E+00
  0.00000000E+00  0.00000000E+00  0.00000000E+00
  0.00000000E+00  0.00000000E+00  0.00000000E+00
  0.00000000E+00  0.00000000E+00  0.00000000E+00
  0.00000000E+00  0.00000000E+00  0.00000000E+00
  0.00000000E+00  0.00000000E+00  0.00000000E+00
  0.00000000E+00  0.00000000E+00  0.00000000E+00
  0.00000000E+00  0.00000000E+00  0.00000000E+00
  0.00000000E+00  0.00000000E+00  0.00000000E+00
  0.00000000E+00  0.00000000E+00  0.00000000E+00
  0.00000000E+00  0.00000000E+00  0.00000000E+00
  0.00000000E+00  0.00000000E+00  0.00000000E+00
  0.00000000E+00  0.00000000E+00  0.00000000E+00
  0.00000000E+00  0.00000000E+00  0.00000000E+00
  0.00000000E+00  0.00000000E+00  0.00000000E+00
  0.00000000E+00  0.00000000E+00  0.00000000E+00
  0.00000000E+00  0.00000000E+00  0.00000000E+00
  0.00000000E+00  0.00000000E+00  0.00000000E+00
  0.00000000E+00  0.00000000E+00  0.00000000E+00
  0.00000000E+00  0.00000000E+00  0.00000000E+00
  0.00000000E+00  0.00000000E+00  0.00000000E+00
  0.00000000E+00  0.00000000E+00  0.00000000E+00
  0.00000000E+00  0.00000000E+00  0.00000000E+00
  0.00000000E+00  0.00000000E+00  0.00000000E+00
  0.00000000E+00  0.00000000E+00  0.00000000E+00
  0.00000000E+00  0.00000000E+00  0.00000000E+00
  0.00000000E+00  0.00000000E+00  0.00000000E+00
  0.00000000E+00  0.00000000E+00  0.00000000E+00
  0.00000000E+00  0.00000000E+00  0.00000000E+00
  0.00000000E+00  0.00000000E+00  0.00000000E+00
  0.00000000E+00  0.00000000E+00  0.00000000E+00
  0.00000000E+00  0.00000000E+00  0.00000000E+00
  0.00000000E+00  0.00000000E+00  0.00000000E+00
  0.00000000E+00  0.00000000E+00  0.00000000E+00
  0.00000000E+00  0.00000000E+00  0.00000000E+00
  0.00000000E+00  0.00000000E+00  0.00000000E+00
  0.00000000E+00  0.00000000E+00  0.00000000E+00
  0.00000000E+00  0.00000000E+00  0.00000000E+00
  0.00000000E+00  0.00000000E+00  0.00000000E+00
  0.00000000E+00  0.00000000E+00  0.00000000E+00
  0.00000000E+00  0.00000000E+00  0.00000000E+00
  0.00000000E+00  0.00000000E+00  0.00000000E+00
  0.00000000E+00  0.00000000E+00  0.00000000E+00
  0.00000000E+00  0.00000000E+00  0.00000000E+00
  0.00000000E+00  0.00000000E+00  0.00000000E+00
  0.00000000E+00  0.00000000E+00  0.00000000E+00
  0.00000000E+00  0.00000000E+00  0.00000000E+00
  0.00000000E+00  0.00000000E+00  0.00000000E+00
  0.00000000E+00  0.00000000E+00  0.00000000E+00
  0.00000000E+00  0.00000000E+00  0.00000000E+00
  0.00000000E+00  0.00000000E+00  0.00000000E+00
  0.00000000E+00  0.00000000E+00  0.00000000E+00
  0.00000000E+00  0.00000000E+00  0.00000000E+00
  0.00000000E+00  0.00000000E+00  0.00000000E+00
  0.00000000E+00  0.00000000E+00  0.00000000E+00
  0.00000000E+00  0.00000000E+00  0.00000000E+00
  0.00000000E+00  0.00000000E+00  0.00000000E+00
  0.00000000E+00  0.00000000E+00  0.00000000E+00
  0.00000000E+00  0.00000000E+00  0.00000000E+00
  0.00000000E+00  0.00000000E+00  0.00000000E+00
