%BLOCK LATTICE_CART
    4.59320000000000    0.00000000000000    0.00000000000000
    0.26105494827932    4.63308114529401    0.00000000000000
    0.00000000000000    0.00000000000000    6.04027000000000
%ENDBLOCK LATTICE_CART

%BLOCK POSITIONS_FRAC
Se    0.26916143341040    0.18918626230360    0.25000000000000
Se   -0.26916143341040   -0.18918626230360   -0.25000000000000
Ag    0.76335794760140    0.31089488552250    0.00465243072180
Ag   -0.76335794760140   -0.31089488552250    0.50465243072180
Ag   -0.76335794760140   -0.31089488552250   -0.00465243072180
Ag    0.76335794760140    0.31089488552250   -0.50465243072180
%ENDBLOCK POSITIONS_FRAC
KPOINTS_MP_SPACING 0.03
 
SYMMETRY_GENERATE
SNAP_TO_SYMMETRY
 
%BLOCK SPECIES_POT
C19
%ENDBLOCK SPECIES_POT
 
%BLOCK EXTERNAL_PRESSURE
0 0 0
0 0
0
%ENDBLOCK EXTERNAL_PRESSURE
