%BLOCK LATTICE_CART
    4.69179000000000    0.00000000000000    0.00000000000000
    0.62998452331076    4.64930241052235    0.00000000000000
    0.35882789061165    0.31348554311646    6.01162693366581
%ENDBLOCK LATTICE_CART

%BLOCK POSITIONS_FRAC
Se    0.44448093792810   -0.10670531449330   -0.41721139230830
Se   -0.10670531449330    0.44448093792810    0.08278860769170
Ag   -0.03052671540580   -0.13636474191280    0.35681442076640
Ag   -0.13636474191280   -0.03052671540580   -0.14318557923360
Ag    0.41013727994650    0.22944625393730    0.20201417154180
Ag    0.22944625393730    0.41013727994650   -0.29798582845820
%ENDBLOCK POSITIONS_FRAC
KPOINTS_MP_SPACING 0.03
 
SYMMETRY_GENERATE
SNAP_TO_SYMMETRY
 
%BLOCK SPECIES_POT
C19
%ENDBLOCK SPECIES_POT
 
%BLOCK EXTERNAL_PRESSURE
0 0 0
0 0
0
%ENDBLOCK EXTERNAL_PRESSURE
