%BLOCK LATTICE_CART
    4.07990000000000    0.00000000000000    0.00000000000000
    0.00000000000000    5.83084000000000    0.00000000000000
    0.00000000000000    0.00000000000000    5.89245000000000
%ENDBLOCK LATTICE_CART

%BLOCK POSITIONS_FRAC
Se    0.12494231446410    0.50000000000000    0.01466869274550
Se   -0.12494231446410   -0.00000000000000   -0.48533130725450
Ag   -0.48095645915040   -0.25033377536090    0.25162500362730
Ag    0.48095645915040   -0.24966622463910   -0.24837499637270
Ag    0.48095645915040    0.24966622463910   -0.24837499637270
Ag   -0.48095645915040    0.25033377536090    0.25162500362730
%ENDBLOCK POSITIONS_FRAC
KPOINTS_MP_SPACING 0.03
 
SYMMETRY_GENERATE
SNAP_TO_SYMMETRY
 
%BLOCK SPECIES_POT
C19
%ENDBLOCK SPECIES_POT
 
%BLOCK EXTERNAL_PRESSURE
0 0 0
0 0
0
%ENDBLOCK EXTERNAL_PRESSURE
