%BLOCK LATTICE_CART
    4.45615000000000    0.00000000000000    0.00000000000000
    0.00000000000000    4.84883000000000    0.00000000000000
   -0.24764068424574    0.00000000000000    6.01598524415630
%ENDBLOCK LATTICE_CART

%BLOCK POSITIONS_FRAC
Se    0.33278401474740    0.39582881225570    0.24760247945810
Se   -0.33278401474740   -0.10417118774430   -0.24760247945810
Ag   -0.17052614098420    0.40191565833760   -0.06492037723030
Ag    0.17052614098420   -0.09808434166240    0.06492037723030
Ag   -0.14799762315340   -0.39722937059330    0.42156815394750
Ag    0.14799762315340    0.10277062940670   -0.42156815394750
%ENDBLOCK POSITIONS_FRAC
KPOINTS_MP_SPACING 0.03
 
SYMMETRY_GENERATE
SNAP_TO_SYMMETRY
 
%BLOCK SPECIES_POT
C19
%ENDBLOCK SPECIES_POT
 
%BLOCK EXTERNAL_PRESSURE
0 0 0
0 0
0
%ENDBLOCK EXTERNAL_PRESSURE
