%BLOCK LATTICE_CART
    4.06851000000000    0.00000000000000    0.00000000000000
    0.00000000000000    5.70940000000000    0.00000000000000
   -0.01838508923351    0.00000000000000    5.73645053834633
%ENDBLOCK LATTICE_CART

%BLOCK POSITIONS_FRAC
Se    0.37743991119540    0.28387344620380   -0.25034849832240
Se   -0.37743991119540   -0.21612655379620    0.25034849832240
Ag   -0.01218984522050   -0.41364669321070   -0.05855034548190
Ag    0.01218984522050    0.08635330678930    0.05855034548190
Ag   -0.02385823480720    0.45941214700680    0.44292707398350
Ag    0.02385823480720   -0.04058785299320   -0.44292707398350
%ENDBLOCK POSITIONS_FRAC
KPOINTS_MP_SPACING 0.03
 
SYMMETRY_GENERATE
SNAP_TO_SYMMETRY
 
%BLOCK SPECIES_POT
C19
%ENDBLOCK SPECIES_POT
 
%BLOCK EXTERNAL_PRESSURE
0 0 0
0 0
0
%ENDBLOCK EXTERNAL_PRESSURE
