%BLOCK LATTICE_CART
    4.11453000000000    0.00000000000000    0.00000000000000
    0.00000000000000    5.81879000000000    0.00000000000000
    0.00000000000000    0.00000000000000    5.86398000000000
%ENDBLOCK LATTICE_CART

%BLOCK POSITIONS_FRAC
Se   -0.36734586792320    0.14742049083280    0.00000000000000
Se    0.36734586792320   -0.35257950916720    0.50000000000000
Ag   -0.05321795439490   -0.14142149541640    0.24944127854880
Ag    0.05321795439490    0.35857850458360    0.25055872145120
Ag    0.05321795439490    0.35857850458360   -0.25055872145120
Ag   -0.05321795439490   -0.14142149541640   -0.24944127854880
%ENDBLOCK POSITIONS_FRAC
KPOINTS_MP_SPACING 0.03
 
SYMMETRY_GENERATE
SNAP_TO_SYMMETRY
 
%BLOCK SPECIES_POT
C19
%ENDBLOCK SPECIES_POT
 
%BLOCK EXTERNAL_PRESSURE
0 0 0
0 0
0
%ENDBLOCK EXTERNAL_PRESSURE
