%BLOCK LATTICE_CART
    4.32050000000000    0.00000000000000    0.00000000000000
    0.00000000000000    7.31595000000000    0.00000000000000
    0.00000000000000   -2.88075862834333    7.67359146067377
%ENDBLOCK LATTICE_CART

%BLOCK POSITIONS_FRAC
Se   -0.37237383435370   -0.21816435494410    0.53205123974280
Se    0.37237383435370   -0.21816435494410    0.03205123974280
Se    0.37969377716160    0.19843863123750    0.41794989230950
Se   -0.37969377716160    0.19843863123750   -0.08205010769050
Ag   -0.00211379448300   -0.50923656349530   -0.01949499975690
Ag    0.00211379448300   -0.50923656349530   -0.51949499975690
Ag   -0.03355507563810    0.16058293150740   -0.36119526805670
Ag    0.03355507563810    0.16058293150740    0.13880473194330
Ag    0.51377693482950    0.48550593308890    0.22861320739880
Ag   -0.51377693482950    0.48550593308890   -0.27138679260120
Ag   -0.05496810914870   -0.18099537739440   -0.18047287163750
Ag    0.05496810914870   -0.18099537739440    0.31952712836250
%ENDBLOCK POSITIONS_FRAC
KPOINTS_MP_SPACING 0.03
 
SYMMETRY_GENERATE
SNAP_TO_SYMMETRY
 
%BLOCK SPECIES_POT
C19
%ENDBLOCK SPECIES_POT
 
%BLOCK EXTERNAL_PRESSURE
0 0 0
0 0
0
%ENDBLOCK EXTERNAL_PRESSURE
