%BLOCK LATTICE_CART
    6.46482000000000    0.00000000000000    0.00000000000000
    0.32794870594150    6.45649651735919    0.00000000000000
    0.32794870594150    0.31171378997959    6.44896749811998
%ENDBLOCK LATTICE_CART

%BLOCK POSITIONS_FRAC
Se   -0.26398064600000    0.16863509361680   -0.32975483401210
Se   -0.32975483401210   -0.26398064600000    0.16863509361680
Se    0.16863509361680   -0.32975483401210   -0.26398064600000
Se    0.23387202208470    0.23387202208470    0.23387202208470
Ag   -0.13526653675860    0.37752532639100    0.30306459797220
Ag    0.30306459797220   -0.13526653675860    0.37752532639100
Ag    0.37752532639100    0.30306459797220   -0.13526653675860
Ag   -0.12528320207890   -0.20699263510220   -0.51123049318130
Ag   -0.51123049318130   -0.12528320207890   -0.20699263510220
Ag   -0.20699263510220   -0.51123049318130   -0.12528320207890
Ag    0.00230529987300    0.00230529987300    0.00230529987300
Ag    0.46182970719530    0.46182970719530    0.46182970719530
%ENDBLOCK POSITIONS_FRAC
KPOINTS_MP_SPACING 0.03
 
SYMMETRY_GENERATE
SNAP_TO_SYMMETRY
 
%BLOCK SPECIES_POT
C19
%ENDBLOCK SPECIES_POT
 
%BLOCK EXTERNAL_PRESSURE
0 0 0
0 0
0
%ENDBLOCK EXTERNAL_PRESSURE
