%BLOCK LATTICE_CART
    6.07208000000000    0.00000000000000    0.00000000000000
   -1.06875197659693    6.71183180991748    0.00000000000000
    0.00000000000000    0.00000000000000    6.47389000000000
%ENDBLOCK LATTICE_CART

%BLOCK POSITIONS_FRAC
Se    0.35652223124910   -0.12111994128940    0.45141183030560
Se   -0.14347776875090    0.37888005871060   -0.45141183030560
Se    0.35532729322970    0.38136539091420   -0.04763887595080
Se   -0.14467270677030   -0.11863460908580    0.04763887595080
Ag   -0.47646714441390    0.24370241280430    0.28845629369020
Ag    0.02353285558610   -0.25629758719570   -0.28845629369020
Ag   -0.47775720523650   -0.25741483676980   -0.21234217788700
Ag    0.02224279476350    0.24258516323020    0.21234217788700
Ag   -0.32149875539770    0.16505736428520   -0.13272039966930
Ag    0.17850124460230   -0.33494263571480    0.13272039966930
Ag   -0.31232581943070   -0.33339108994440    0.36818512433060
Ag    0.18767418056930    0.16660891005560   -0.36818512433060
%ENDBLOCK POSITIONS_FRAC
KPOINTS_MP_SPACING 0.03
 
SYMMETRY_GENERATE
SNAP_TO_SYMMETRY
 
%BLOCK SPECIES_POT
C19
%ENDBLOCK SPECIES_POT
 
%BLOCK EXTERNAL_PRESSURE
0 0 0
0 0
0
%ENDBLOCK EXTERNAL_PRESSURE
