%BLOCK LATTICE_CART
    4.30196000000000    0.00000000000000    0.00000000000000
    0.00000000000000    8.00213000000000    0.00000000000000
   -3.85299173253379    0.00000000000000    7.12561134788632
%ENDBLOCK LATTICE_CART

%BLOCK POSITIONS_FRAC
Se   -0.35206106496680    0.51497675813290    0.50426761307690
Se    0.35206106496680    0.01497675813290   -0.50426761307690
Se    0.37450913447990   -0.26295445002990    0.01537187445190
Se   -0.37450913447990    0.23704554997010   -0.01537187445190
Ag   -0.49254927554700    0.19641796336550    0.27209083234140
Ag    0.49254927554700   -0.30358203663450   -0.27209083234140
Ag   -0.03910738340690   -0.05859976839290    0.08917279016910
Ag    0.03910738340690   -0.55859976839290   -0.08917279016910
Ag    0.01550795462750   -0.04150097423310   -0.25349498639370
Ag   -0.01550795462750    0.45849902576690    0.25349498639370
Ag    0.15682221849300    0.28581187115750   -0.38243644397560
Ag   -0.15682221849300   -0.21418812884250    0.38243644397560
%ENDBLOCK POSITIONS_FRAC
KPOINTS_MP_SPACING 0.03
 
SYMMETRY_GENERATE
SNAP_TO_SYMMETRY
 
%BLOCK SPECIES_POT
C19
%ENDBLOCK SPECIES_POT
 
%BLOCK EXTERNAL_PRESSURE
0 0 0
0 0
0
%ENDBLOCK EXTERNAL_PRESSURE
