%BLOCK LATTICE_CART
    6.38926000000000    0.00000000000000    0.00000000000000
   -0.05778557202485    6.38899868330443    0.00000000000000
   -0.05778557202485   -0.05831057959415    6.38873258569907
%ENDBLOCK LATTICE_CART

%BLOCK POSITIONS_FRAC
Se    0.04648018645480   -0.45313964443050    0.51394333062780
Se    0.51394333062780    0.04648018645480   -0.45313964443050
Se   -0.45313964443050    0.51394333062780    0.04648018645480
Se    0.01373118244910    0.01373118244910    0.01373118244910
Ag    0.29305769710860   -0.23951107512230   -0.20661599926430
Ag   -0.20661599926430    0.29305769710860   -0.23951107512230
Ag   -0.23951107512230   -0.20661599926430    0.29305769710860
Ag   -0.20833738527690    0.25227332357010    0.29111164954810
Ag    0.29111164954810   -0.20833738527690    0.25227332357010
Ag    0.25227332357010    0.29111164954810   -0.20833738527690
Ag    0.26234623138070    0.26234623138070    0.26234623138070
Ag   -0.24948889704540   -0.24948889704540   -0.24948889704540
%ENDBLOCK POSITIONS_FRAC
KPOINTS_MP_SPACING 0.03
 
SYMMETRY_GENERATE
SNAP_TO_SYMMETRY
 
%BLOCK SPECIES_POT
C19
%ENDBLOCK SPECIES_POT
 
%BLOCK EXTERNAL_PRESSURE
0 0 0
0 0
0
%ENDBLOCK EXTERNAL_PRESSURE
