%BLOCK LATTICE_CART
    7.22342000000000    0.00000000000000    0.00000000000000
   -1.77765804729467    7.00126619714524    0.00000000000000
   -1.77765804729467   -4.23585125382646    5.57452173004512
%ENDBLOCK LATTICE_CART

%BLOCK POSITIONS_FRAC
Se    0.38361331058600    0.43297641565050    0.48582693983720
Se   -0.38361331058600    0.10221362925120    0.04936310506450
Se    0.05285052418680   -0.04936310506450   -0.43297641565050
Se   -0.05285052418680   -0.48582693983720   -0.10221362925120
Ag    0.24562454239800   -0.29831979733100   -0.19086991355110
Ag   -0.24562454239800    0.56350554405090    0.45605566027100
Ag    0.10744988377990   -0.45605566027100    0.29831979733100
Ag   -0.10744988377990    0.19086991355110   -0.56350554405090
Ag   -0.18689984162210    0.05627074036830   -0.21324804238930
Ag    0.18689984162210   -0.02634820076710    0.24317058199050
Ag   -0.26951878275760   -0.24317058199050   -0.05627074036830
Ag    0.26951878275760    0.21324804238930    0.02634820076710
%ENDBLOCK POSITIONS_FRAC
KPOINTS_MP_SPACING 0.03
 
SYMMETRY_GENERATE
SNAP_TO_SYMMETRY
 
%BLOCK SPECIES_POT
C19
%ENDBLOCK SPECIES_POT
 
%BLOCK EXTERNAL_PRESSURE
0 0 0
0 0
0
%ENDBLOCK EXTERNAL_PRESSURE
