%BLOCK LATTICE_CART
    4.70867000000000    0.00000000000000    0.00000000000000
    0.00000000000000    4.70867000000000    0.00000000000000
    0.00000000000000    0.00000000000000   11.85194000000000
%ENDBLOCK LATTICE_CART

%BLOCK POSITIONS_FRAC
Se    0.39845878102270    0.10264224592050   -0.07214148570600
Se   -0.39845878102270   -0.10264224592050    0.42785851429400
Se    0.10264224592050   -0.39845878102270    0.17785851429400
Se   -0.10264224592050    0.39845878102270   -0.32214148570600
Ag   -0.10644656559610   -0.04965145403960    0.01631406070540
Ag    0.10644656559610    0.04965145403960    0.51631406070540
Ag   -0.04965145403960    0.10644656559610    0.26631406070540
Ag    0.04965145403960   -0.10644656559610   -0.23368593929460
Ag    0.55764345430780   -0.39574720808130   -0.14641647499940
Ag   -0.55764345430780    0.39574720808130    0.35358352500060
Ag   -0.39574720808130   -0.55764345430780    0.10358352500060
Ag    0.39574720808130    0.55764345430780   -0.39641647499940
%ENDBLOCK POSITIONS_FRAC
KPOINTS_MP_SPACING 0.03
 
SYMMETRY_GENERATE
SNAP_TO_SYMMETRY
 
%BLOCK SPECIES_POT
C19
%ENDBLOCK SPECIES_POT
 
%BLOCK EXTERNAL_PRESSURE
0 0 0
0 0
0
%ENDBLOCK EXTERNAL_PRESSURE
