%BLOCK LATTICE_CART
    7.01782000000000    0.00000000000000    0.00000000000000
    0.00000000000000    5.87435000000000    0.00000000000000
    0.00000000000000    0.00000000000000    7.01782000000000
%ENDBLOCK LATTICE_CART

%BLOCK POSITIONS_FRAC
Se    0.34799234527420    0.16202619405270    0.24564526858950
Se   -0.34799234527420    0.16202619405270   -0.24564526858950
Se    0.24564526858950   -0.33797380594730   -0.34799234527420
Se   -0.24564526858950   -0.33797380594730    0.34799234527420
Ag   -0.27220730235240    0.40711126594640    0.04811858515900
Ag    0.27220730235240    0.40711126594640   -0.04811858515900
Ag    0.04811858515900   -0.09288873405360    0.27220730235240
Ag   -0.04811858515900   -0.09288873405360   -0.27220730235240
Ag    0.03935863391230    0.38854924000090    0.30396157468770
Ag   -0.03935863391230    0.38854924000090   -0.30396157468770
Ag    0.30396157468770   -0.11145075999910   -0.03935863391230
Ag   -0.30396157468770   -0.11145075999910    0.03935863391230
%ENDBLOCK POSITIONS_FRAC
KPOINTS_MP_SPACING 0.03
 
SYMMETRY_GENERATE
SNAP_TO_SYMMETRY
 
%BLOCK SPECIES_POT
C19
%ENDBLOCK SPECIES_POT
 
%BLOCK EXTERNAL_PRESSURE
0 0 0
0 0
0
%ENDBLOCK EXTERNAL_PRESSURE
