%BLOCK LATTICE_CART
    4.19222000000000    0.00000000000000    0.00000000000000
    0.87894763161023    4.73218503392320    0.00000000000000
    0.00496752932381   -0.45325626621885   12.88820137760447
%ENDBLOCK LATTICE_CART

%BLOCK POSITIONS_FRAC
Se   -0.16613141732670   -0.27338133401810    0.11673077738800
Se    0.16613141732670    0.27338133401810   -0.11673077738800
Se   -0.17176565511530   -0.30740823150150   -0.38268585083300
Se    0.17176565511530    0.30740823150150    0.38268585083300
Ag    0.32385550879430   -0.21017906219660    0.46570064207910
Ag   -0.32385550879430    0.21017906219660   -0.46570064207910
Ag   -0.36326157517590    0.23875526142590    0.04870162151300
Ag    0.36326157517590   -0.23875526142590   -0.04870162151300
Ag   -0.27822290464830    0.04765156619080    0.28839394544210
Ag    0.27822290464830   -0.04765156619080   -0.28839394544210
Ag   -0.37209782381350    0.39616510662040   -0.23580319834840
Ag    0.37209782381350   -0.39616510662040    0.23580319834840
%ENDBLOCK POSITIONS_FRAC
KPOINTS_MP_SPACING 0.03
 
SYMMETRY_GENERATE
SNAP_TO_SYMMETRY
 
%BLOCK SPECIES_POT
C19
%ENDBLOCK SPECIES_POT
 
%BLOCK EXTERNAL_PRESSURE
0 0 0
0 0
0
%ENDBLOCK EXTERNAL_PRESSURE
