%BLOCK LATTICE_CART
    6.36820000000000    0.00000000000000    0.00000000000000
   -0.23848588855706    6.36373284487644    0.00000000000000
   -0.23848588855706   -0.24759074476524    6.35891457279194
%ENDBLOCK LATTICE_CART

%BLOCK POSITIONS_FRAC
Se   -0.07760685731710   -0.17228265862120    0.36449545585070
Se   -0.17228265862120    0.36449545585070   -0.07760685731710
Se    0.36449545585070   -0.07760685731710   -0.17228265862120
Se    0.29311536627810    0.29311536627810    0.29311536627810
Ag    0.25968732007730   -0.38608137234790   -0.44370598917920
Ag   -0.38608137234790   -0.44370598917920    0.25968732007730
Ag   -0.44370598917920    0.25968732007730   -0.38608137234790
Ag    0.19834005980660   -0.40713510276330    0.01629298746490
Ag   -0.40713510276330    0.01629298746490    0.19834005980660
Ag    0.01629298746490    0.19834005980660   -0.40713510276330
Ag   -0.01850968949060   -0.01850968949060   -0.01850968949060
Ag   -0.29835821975830   -0.29835821975830   -0.29835821975830
%ENDBLOCK POSITIONS_FRAC
KPOINTS_MP_SPACING 0.03
 
SYMMETRY_GENERATE
SNAP_TO_SYMMETRY
 
%BLOCK SPECIES_POT
C19
%ENDBLOCK SPECIES_POT
 
%BLOCK EXTERNAL_PRESSURE
0 0 0
0 0
0
%ENDBLOCK EXTERNAL_PRESSURE
