%BLOCK LATTICE_CART
    7.12845000000000    0.00000000000000    0.00000000000000
    0.00000000000000    7.14719000000000    0.00000000000000
    0.00000000000000    0.00000000000000    5.12833000000000
%ENDBLOCK LATTICE_CART

%BLOCK POSITIONS_FRAC
Se   -0.04221750849580    0.26800220333550    0.30336199653780
Se    0.04221750849580   -0.26800220333550   -0.19663800346220
Se   -0.45778249150420   -0.23199779666450    0.30336199653780
Se    0.45778249150420    0.23199779666450   -0.19663800346220
Ag   -0.19930263198820    0.47606466299610   -0.07371880556920
Ag    0.19930263198820   -0.47606466299610    0.42628119443080
Ag   -0.30069736801180   -0.02393533700390   -0.07371880556920
Ag    0.30069736801180    0.02393533700390    0.42628119443080
Ag    0.11513620778290    0.07552315904370   -0.07444569096860
Ag   -0.11513620778290   -0.07552315904370    0.42555430903140
Ag    0.38486379221710   -0.42447684095630   -0.07444569096860
Ag   -0.38486379221710    0.42447684095630    0.42555430903140
%ENDBLOCK POSITIONS_FRAC
KPOINTS_MP_SPACING 0.03
 
SYMMETRY_GENERATE
SNAP_TO_SYMMETRY
 
%BLOCK SPECIES_POT
C19
%ENDBLOCK SPECIES_POT
 
%BLOCK EXTERNAL_PRESSURE
0 0 0
0 0
0
%ENDBLOCK EXTERNAL_PRESSURE
