%BLOCK LATTICE_CART
    4.25182000000000    0.00000000000000    0.00000000000000
    0.00000000000000    8.04085000000000    0.00000000000000
    0.00000000000000    0.00000000000000    8.04085000000000
%ENDBLOCK LATTICE_CART

%BLOCK POSITIONS_FRAC
Se    0.00112540000000    0.18844791356980    0.31410029003010
Se    0.00112540000000   -0.18844791356980   -0.31410029003010
Se   -0.49887460000000   -0.31410029003010    0.18844791356980
Se   -0.49887460000000    0.31410029003010   -0.18844791356980
Ag    0.00112540000000   -0.18427774836370    0.01870634730270
Ag    0.00112540000000    0.18427774836370   -0.01870634730270
Ag   -0.49887460000000   -0.01870634730270   -0.18427774836370
Ag   -0.49887460000000    0.01870634730270    0.18427774836370
Ag    0.00112540000000    0.48529611843070    0.19069452357100
Ag    0.00112540000000   -0.48529611843070   -0.19069452357100
Ag   -0.49887460000000   -0.19069452357100    0.48529611843070
Ag   -0.49887460000000    0.19069452357100   -0.48529611843070
%ENDBLOCK POSITIONS_FRAC
KPOINTS_MP_SPACING 0.03
 
SYMMETRY_GENERATE
SNAP_TO_SYMMETRY
 
%BLOCK SPECIES_POT
C19
%ENDBLOCK SPECIES_POT
 
%BLOCK EXTERNAL_PRESSURE
0 0 0
0 0
0
%ENDBLOCK EXTERNAL_PRESSURE
