%BLOCK LATTICE_CART
    4.37148000000000    0.00000000000000    0.00000000000000
    0.00000000000000    7.09883000000000    0.00000000000000
    0.00000000000000    0.00000000000000    7.70781000000000
%ENDBLOCK LATTICE_CART

%BLOCK POSITIONS_FRAC
Se    0.88105467505590    0.48833383962960    0.33733453048380
Se    0.11894532494410    0.98833383962960    0.16266546951620
Se    0.38105467505590    0.01166616037040    0.66266546951620
Se    0.61894532494410    0.51166616037040    0.83733453048380
Ag    0.01881196950130    0.23279792926970    0.87080225994440
Ag    0.66511751929680    0.88733378899330    0.95205789147760
Ag    0.48118803049870    0.76720207073030    0.37080225994440
Ag    0.16511751929680    0.61266621100670    0.04794210852240
Ag    0.83488248070320    0.11266621100670    0.45205789147760
Ag    0.98118803049870    0.73279792926970    0.62919774005560
Ag    0.33488248070320    0.38733378899330    0.54794210852240
Ag    0.51881196950130    0.26720207073030    0.12919774005560
%ENDBLOCK POSITIONS_FRAC
KPOINTS_MP_SPACING 0.03
 
SYMMETRY_GENERATE
SNAP_TO_SYMMETRY
 
%BLOCK SPECIES_POT
C19
%ENDBLOCK SPECIES_POT
 
%BLOCK EXTERNAL_PRESSURE
0 0 0
0 0
0
%ENDBLOCK EXTERNAL_PRESSURE
