%BLOCK LATTICE_CART
    5.86495000000000    0.00000000000000    0.00000000000000
   -0.00390513625730    5.86494869989592    0.00000000000000
    0.00000000000000    0.00000000000000    8.18786000000000
%ENDBLOCK LATTICE_CART

%BLOCK POSITIONS_FRAC
Se    0.21928382472500    0.28031193835280   -0.06766648063520
Se   -0.28031193835280   -0.21928382472500    0.06766648063520
Se    0.21968806164720    0.28071617527500    0.43233351936480
Se   -0.28071617527500   -0.21968806164720   -0.43233351936480
Ag    0.00339519139140    0.00800150554030    0.24218951980530
Ag   -0.00800150554030   -0.00339519139140   -0.24218951980530
Ag    0.49199849445970    0.49660480860860   -0.25781048019470
Ag   -0.49660480860860   -0.49199849445970    0.25781048019470
Ag   -0.01068564185580    0.49739493036750   -0.28700560831440
Ag   -0.49739493036750    0.01068564185580    0.28700560831440
Ag    0.00260506963250   -0.48931435814420    0.21299439168560
Ag    0.48931435814420   -0.00260506963250   -0.21299439168560
%ENDBLOCK POSITIONS_FRAC
KPOINTS_MP_SPACING 0.03
 
SYMMETRY_GENERATE
SNAP_TO_SYMMETRY
 
%BLOCK SPECIES_POT
C19
%ENDBLOCK SPECIES_POT
 
%BLOCK EXTERNAL_PRESSURE
0 0 0
0 0
0
%ENDBLOCK EXTERNAL_PRESSURE
