%BLOCK LATTICE_CART
    5.77121000000000    0.00000000000000    0.00000000000000
    0.00000000000000    6.82205000000000    0.00000000000000
    0.00000000000000    0.00000000000000    6.82205000000000
%ENDBLOCK LATTICE_CART

%BLOCK POSITIONS_FRAC
Se    0.24849038892550    0.26816283781220   -0.34047148692280
Se    0.24849038892550   -0.26816283781220    0.34047148692280
Se   -0.24849038892550   -0.34047148692280   -0.26816283781220
Se   -0.24849038892550    0.34047148692280    0.26816283781220
Ag    0.43321545308370    0.07423541737010    0.28798893433130
Ag    0.43321545308370   -0.07423541737010   -0.28798893433130
Ag   -0.43321545308370    0.28798893433130   -0.07423541737010
Ag   -0.43321545308370   -0.28798893433130    0.07423541737010
Ag   -0.07503837180090    0.00943464750410   -0.28721999805840
Ag   -0.07503837180090   -0.00943464750410    0.28721999805840
Ag    0.07503837180090   -0.28721999805840   -0.00943464750410
Ag    0.07503837180090    0.28721999805840    0.00943464750410
%ENDBLOCK POSITIONS_FRAC
KPOINTS_MP_SPACING 0.03
 
SYMMETRY_GENERATE
SNAP_TO_SYMMETRY
 
%BLOCK SPECIES_POT
C19
%ENDBLOCK SPECIES_POT
 
%BLOCK EXTERNAL_PRESSURE
0 0 0
0 0
0
%ENDBLOCK EXTERNAL_PRESSURE
