%BLOCK LATTICE_CART
    5.72067000000000    0.00000000000000    0.00000000000000
    0.00000000000000    5.77308000000000    0.00000000000000
   -0.84617443613894    0.00000000000000    8.19484917005950
%ENDBLOCK LATTICE_CART

%BLOCK POSITIONS_FRAC
Se    0.27798941097930   -0.24910778872210   -0.06262150825410
Se   -0.27798941097930    0.25089221127790   -0.43737849174590
Se   -0.27798941097930    0.24910778872210    0.06262150825410
Se    0.27798941097930   -0.25089221127790    0.43737849174590
Ag    0.43957820085600    0.43499559951210    0.25147723374490
Ag   -0.43957820085600   -0.06500440048790    0.24852276625510
Ag   -0.43957820085600   -0.43499559951210   -0.25147723374490
Ag    0.43957820085600    0.06500440048790   -0.24852276625510
Ag   -0.05422341116350   -0.45656442791460    0.25659073549040
Ag    0.05422341116350    0.04343557208540    0.24340926450960
Ag    0.05422341116350    0.45656442791460   -0.25659073549040
Ag   -0.05422341116350   -0.04343557208540   -0.24340926450960
%ENDBLOCK POSITIONS_FRAC
KPOINTS_MP_SPACING 0.03
 
SYMMETRY_GENERATE
SNAP_TO_SYMMETRY
 
%BLOCK SPECIES_POT
C19
%ENDBLOCK SPECIES_POT
 
%BLOCK EXTERNAL_PRESSURE
0 0 0
0 0
0
%ENDBLOCK EXTERNAL_PRESSURE
