%BLOCK LATTICE_CART
    6.40301000000000    0.00000000000000    0.00000000000000
    0.00999076837057    6.40300220557883    0.00000000000000
    0.00999076837057    0.00997519168057    6.40299443543396
%ENDBLOCK LATTICE_CART

%BLOCK POSITIONS_FRAC
Se   -0.23457925029490   -0.29607243585110    0.23108357350880
Se    0.23108357350880   -0.23457925029490   -0.29607243585110
Se   -0.29607243585110    0.23108357350880   -0.23457925029490
Se    0.23432814178930    0.23432814178930    0.23432814178930
Ag   -0.04463027472350    0.01193261609990    0.48075698095570
Ag    0.48075698095570   -0.04463027472350    0.01193261609990
Ag    0.01193261609990    0.48075698095570   -0.04463027472350
Ag    0.45573976985530   -0.49099640914020    0.01858655889620
Ag    0.01858655889620    0.45573976985530   -0.49099640914020
Ag   -0.49099640914020    0.01858655889620    0.45573976985530
Ag   -0.40851366392270   -0.40851366392270   -0.40851366392270
Ag   -0.00509920717290   -0.00509920717290   -0.00509920717290
%ENDBLOCK POSITIONS_FRAC
KPOINTS_MP_SPACING 0.03
 
SYMMETRY_GENERATE
SNAP_TO_SYMMETRY
 
%BLOCK SPECIES_POT
C19
%ENDBLOCK SPECIES_POT
 
%BLOCK EXTERNAL_PRESSURE
0 0 0
0 0
0
%ENDBLOCK EXTERNAL_PRESSURE
