%BLOCK LATTICE_CART
    4.36395000000000    0.00000000000000    0.00000000000000
   -2.11107603425800    6.95047149318530    0.00000000000000
    0.00000000000000    0.00000000000000    8.06045000000000
%ENDBLOCK LATTICE_CART

%BLOCK POSITIONS_FRAC
Se   -0.21298125981400    0.51295206029810   -0.51259106808520
Se    0.21298125981400   -0.51295206029810   -0.01259106808520
Se    0.13614093940190   -0.01504807981160   -0.23891641579170
Se   -0.13614093940190    0.01504807981160    0.26108358420830
Ag    0.53504691695580    0.03049095941690   -0.47759012880950
Ag   -0.53504691695580   -0.03049095941690    0.02240987119050
Ag    0.16516057250310    0.31060991539940   -0.41211037872530
Ag   -0.16516057250310   -0.31060991539940    0.08788962127470
Ag    0.33343012274390   -0.31554940552800    0.32808457260010
Ag   -0.33343012274390    0.31554940552800   -0.17191542739990
Ag   -0.45049668012500   -0.29815863997630   -0.26672888118840
Ag    0.45049668012500    0.29815863997630    0.23327111881160
%ENDBLOCK POSITIONS_FRAC
KPOINTS_MP_SPACING 0.03
 
SYMMETRY_GENERATE
SNAP_TO_SYMMETRY
 
%BLOCK SPECIES_POT
C19
%ENDBLOCK SPECIES_POT
 
%BLOCK EXTERNAL_PRESSURE
0 0 0
0 0
0
%ENDBLOCK EXTERNAL_PRESSURE
