%BLOCK LATTICE_CART
    4.84364000000000    0.00000000000000    0.00000000000000
    0.00000000000000    6.10012000000000    0.00000000000000
    0.00000000000000    0.00000000000000    8.55622000000000
%ENDBLOCK LATTICE_CART

%BLOCK POSITIONS_FRAC
Se    0.31270368567130    0.01476637729380   -0.32818994235760
Se   -0.31270368567130    0.51476637729380   -0.17181005764240
Se   -0.18729631432870   -0.51476637729380    0.32818994235760
Se    0.18729631432870   -0.01476637729380    0.17181005764240
Ag   -0.01375514217120   -0.30620664153440   -0.41752406616360
Ag    0.01375514217120    0.19379335846560   -0.08247593383640
Ag    0.48624485782880   -0.19379335846560    0.41752406616360
Ag   -0.48624485782880    0.30620664153440    0.08247593383640
Ag    0.17663708671370   -0.31115774985940   -0.08189314556700
Ag   -0.17663708671370    0.18884225014060   -0.41810685443300
Ag   -0.32336291328630   -0.18884225014060    0.08189314556700
Ag    0.32336291328630    0.31115774985940    0.41810685443300
%ENDBLOCK POSITIONS_FRAC
KPOINTS_MP_SPACING 0.03
 
SYMMETRY_GENERATE
SNAP_TO_SYMMETRY
 
%BLOCK SPECIES_POT
C19
%ENDBLOCK SPECIES_POT
 
%BLOCK EXTERNAL_PRESSURE
0 0 0
0 0
0
%ENDBLOCK EXTERNAL_PRESSURE
