%BLOCK LATTICE_CART
    7.99114000000000    0.00000000000000    0.00000000000000
    0.00000000000000    7.99114000000000    0.00000000000000
    0.00000000000000    0.00000000000000    4.28038000000000
%ENDBLOCK LATTICE_CART

%BLOCK POSITIONS_FRAC
Se    0.31357244068240   -0.18640833329350    0.17967119875890
Se   -0.31357244068240    0.18640833329350    0.17967119875890
Se    0.18640833329350    0.31357244068240   -0.17967119875890
Se   -0.18640833329350   -0.31357244068240   -0.17967119875890
Ag   -0.27211882161730   -0.50369540755300    0.34078657331140
Ag    0.27211882161730    0.50369540755300    0.34078657331140
Ag    0.50369540755300   -0.27211882161730   -0.34078657331140
Ag   -0.50369540755300    0.27211882161730   -0.34078657331140
Ag   -0.23679397788790   -0.00768616973730   -0.35083611662950
Ag    0.23679397788790    0.00768616973730   -0.35083611662950
Ag    0.00768616973730   -0.23679397788790    0.35083611662950
Ag   -0.00768616973730    0.23679397788790    0.35083611662950
%ENDBLOCK POSITIONS_FRAC
KPOINTS_MP_SPACING 0.03
 
SYMMETRY_GENERATE
SNAP_TO_SYMMETRY
 
%BLOCK SPECIES_POT
C19
%ENDBLOCK SPECIES_POT
 
%BLOCK EXTERNAL_PRESSURE
0 0 0
0 0
0
%ENDBLOCK EXTERNAL_PRESSURE
