%BLOCK LATTICE_CART
    6.46468000000000    0.00000000000000    0.00000000000000
    0.03263253986988    6.46459763788448    0.00000000000000
    0.03263253986988    0.03246823034393    6.46451610205744
%ENDBLOCK LATTICE_CART

%BLOCK POSITIONS_FRAC
Se   -0.10853840579240   -0.14131431697610    0.39287599016560
Se    0.39287599016560   -0.10853840579240   -0.14131431697610
Se   -0.14131431697610    0.39287599016560   -0.10853840579240
Se    0.36342709478270    0.36342709478270    0.36342709478270
Ag    0.02538297703680    0.48570275510780   -0.47197905606350
Ag   -0.47197905606350    0.02538297703680    0.48570275510780
Ag    0.48570275510780   -0.47197905606350    0.02538297703680
Ag    0.06793051328240   -0.29443336038610    0.04149186358380
Ag    0.04149186358380    0.06793051328240   -0.29443336038610
Ag   -0.29443336038610    0.04149186358380    0.06793051328240
Ag   -0.39926574585130   -0.39926574585130   -0.39926574585130
Ag    0.13280069111040    0.13280069111040    0.13280069111040
%ENDBLOCK POSITIONS_FRAC
KPOINTS_MP_SPACING 0.03
 
SYMMETRY_GENERATE
SNAP_TO_SYMMETRY
 
%BLOCK SPECIES_POT
C19
%ENDBLOCK SPECIES_POT
 
%BLOCK EXTERNAL_PRESSURE
0 0 0
0 0
0
%ENDBLOCK EXTERNAL_PRESSURE
