%BLOCK LATTICE_CART
    7.17132000000000    0.00000000000000    0.00000000000000
   -3.73310739515555    6.12304987066372    0.00000000000000
   -0.36306554140321   -0.64657677457149    8.74394296048015
%ENDBLOCK LATTICE_CART

%BLOCK POSITIONS_FRAC
Se   -0.31990187153790   -0.15355387858010   -0.40137905593460
Se    0.34644612141990    0.18009812846210    0.09862094406540
Se    0.08060257430830   -0.36525057438620   -0.16970031410640
Se    0.13474942561380   -0.41939742569170    0.33029968589360
Se   -0.30425701644920   -0.16749538328360    0.01730806602520
Se    0.33250461671640    0.19574298355080   -0.48269193397480
Ag   -0.11212848343430    0.21093659350070    0.16236833350140
Ag   -0.28906340649930    0.38787151656570   -0.33763166649860
Ag   -0.33260143104470    0.39874285820730    0.32503205190620
Ag   -0.10125714179270    0.16739856895530   -0.17496794809380
Ag   -0.00404146077010   -0.18516891238410    0.19334613977500
Ag    0.31483108761590   -0.50404146077010   -0.30665386022500
Ag   -0.27604376656070    0.43258193655430   -0.01323867899200
Ag   -0.06741806344570    0.22395623343930    0.48676132100800
Ag   -0.39848908729420   -0.19702982588910    0.30448801487260
Ag    0.30297017411090    0.10151091270580   -0.19551198512740
Ag   -0.00662951146670   -0.22169275948970   -0.47457455704750
Ag    0.27830724051030    0.49337048853330    0.02542544295250
%ENDBLOCK POSITIONS_FRAC
KPOINTS_MP_SPACING 0.03
 
SYMMETRY_GENERATE
SNAP_TO_SYMMETRY
 
%BLOCK SPECIES_POT
C19
%ENDBLOCK SPECIES_POT
 
%BLOCK EXTERNAL_PRESSURE
0 0 0
0 0
0
%ENDBLOCK EXTERNAL_PRESSURE
