%BLOCK LATTICE_CART
    7.95089000000000    0.00000000000000    0.00000000000000
    3.97544500000000    6.88567272269565    0.00000000000000
    3.97544775731277    2.29522583283382    7.31062377828795
%ENDBLOCK LATTICE_CART

%BLOCK POSITIONS_FRAC
Se   -0.43191191641500    0.22204024482610    0.39486921341470
Se    0.22204024482610   -0.18499854182590    0.39486921341470
Se   -0.18499854182590   -0.43191191641500    0.39486921341470
Se    0.39729019549560   -0.35622882384640   -0.03425323666780
Se   -0.35622882384640   -0.00680913498150   -0.03425323666780
Se   -0.00680913498150    0.39729019549560   -0.03425323666780
Ag    0.20738080094270    0.44356151656300    0.33865835220300
Ag    0.44356151656300    0.01039833029120    0.33865835220300
Ag    0.01039833029120    0.20738080094270    0.33865835220300
Ag   -0.08304838621620   -0.12603279555240   -0.31785774356480
Ag   -0.12603279555240   -0.47306207466660   -0.31785774356480
Ag   -0.47306207466660   -0.08304838621620   -0.31785774356480
Ag   -0.31371803012290    0.29662089571120   -0.32210788685160
Ag    0.29662089571120    0.33920402126330   -0.32210788685160
Ag    0.33920402126330   -0.31371803012290   -0.32210788685160
Ag   -0.22990089586540    0.20282829149080    0.02148430146650
Ag    0.20282829149080    0.00558730290810    0.02148430146650
Ag    0.00558730290810   -0.22990089586540    0.02148430146650
%ENDBLOCK POSITIONS_FRAC
KPOINTS_MP_SPACING 0.03
 
SYMMETRY_GENERATE
SNAP_TO_SYMMETRY
 
%BLOCK SPECIES_POT
C19
%ENDBLOCK SPECIES_POT
 
%BLOCK EXTERNAL_PRESSURE
0 0 0
0 0
0
%ENDBLOCK EXTERNAL_PRESSURE
