%BLOCK LATTICE_CART
    7.12294000000000    0.00000000000000    0.00000000000000
   -3.56147000000000    6.16864698963233    0.00000000000000
    0.00000000000000    0.00000000000000    8.73363000000000
%ENDBLOCK LATTICE_CART

%BLOCK POSITIONS_FRAC
Se   -0.30870742895300   -0.01725818511300    0.03366698159310
Se    0.01725818511300   -0.29144934384010   -0.29966635174020
Se    0.29144934384010    0.30870742895300    0.36700031492650
Se    0.29429679020740    0.31169616614940   -0.04336839770140
Se   -0.31169616614940   -0.01739947594210   -0.37670173103470
Se    0.01739947594210   -0.29429679020740    0.28996493563190
Ag    0.26884297715780    0.29576431023970   -0.33823835266580
Ag   -0.29576431023970   -0.02692143308180    0.32842831400080
Ag    0.02692143308180   -0.26884297715780   -0.00490501933250
Ag   -0.33220004269540   -0.40196847341050    0.49636004291580
Ag    0.40196847341050    0.06976833071510    0.16302670958240
Ag   -0.06976833071510    0.33220004269540   -0.17030662375090
Ag   -0.04002741839870   -0.61489320610350   -0.50324552117030
Ag    0.61489320610350   -0.42513431229520    0.16342114549640
Ag    0.42513431229520    0.04002741839870   -0.16991218783700
Ag   -0.36221447188750   -0.36256588980300   -0.17232975297140
Ag    0.36256588980300    0.00035131791550    0.49433691369530
Ag   -0.00035131791550    0.36221447188750    0.16100358036200
%ENDBLOCK POSITIONS_FRAC
KPOINTS_MP_SPACING 0.03
 
SYMMETRY_GENERATE
SNAP_TO_SYMMETRY
 
%BLOCK SPECIES_POT
C19
%ENDBLOCK SPECIES_POT
 
%BLOCK EXTERNAL_PRESSURE
0 0 0
0 0
0
%ENDBLOCK EXTERNAL_PRESSURE
