%BLOCK LATTICE_CART
    7.94208000000000    0.00000000000000    0.00000000000000
   -3.97104000000000    6.87804303888831    0.00000000000000
    0.00000000000000    0.00000000000000    7.33282000000000
%ENDBLOCK LATTICE_CART

%BLOCK POSITIONS_FRAC
Se   -0.04927779381170   -0.39736219109370   -0.01330839347990
Se    0.39736219109370    0.34808439728200   -0.01330839347990
Se   -0.34808439728200    0.04927779381170   -0.01330839347990
Se   -0.35767917859440   -0.30399601083890   -0.42820408515120
Se    0.30399601083890   -0.05368316775550   -0.42820408515120
Se    0.05368316775550    0.35767917859440   -0.42820408515120
Ag    0.19826792085250   -0.03140542629310   -0.06021071887930
Ag    0.03140542629310    0.22967334714560   -0.06021071887930
Ag   -0.22967334714560   -0.19826792085250   -0.06021071887930
Ag   -0.41765174455500   -0.14866224144880    0.28376617272090
Ag    0.14866224144880   -0.26898950310620    0.28376617272090
Ag    0.26898950310620    0.41765174455500    0.28376617272090
Ag   -0.28554639486220   -0.42926030988160    0.26299828450780
Ag    0.42926030988160    0.14371391501940    0.26299828450780
Ag   -0.14371391501940    0.28554639486220    0.26299828450780
Ag   -0.10884798893590   -0.42797820688670   -0.39737995971830
Ag    0.42797820688670    0.31913021795090   -0.39737995971830
Ag   -0.31913021795090    0.10884798893590   -0.39737995971830
%ENDBLOCK POSITIONS_FRAC
KPOINTS_MP_SPACING 0.03
 
SYMMETRY_GENERATE
SNAP_TO_SYMMETRY
 
%BLOCK SPECIES_POT
C19
%ENDBLOCK SPECIES_POT
 
%BLOCK EXTERNAL_PRESSURE
0 0 0
0 0
0
%ENDBLOCK EXTERNAL_PRESSURE
