%BLOCK LATTICE_CART
    8.10242000000000    0.00000000000000    0.00000000000000
   -2.70080656471949    7.38362687480672    0.00000000000000
   -2.70080656471949   -3.69181227603629    6.39440911616358
%ENDBLOCK LATTICE_CART

%BLOCK POSITIONS_FRAC
Se   -0.03615700000000    0.11954500000000   -0.24633600000000
Se   -0.15570200000000   -0.36588000000000   -0.11954600000000
Se    0.21017800000000    0.24633500000000    0.36587900000000
Se   -0.28723300000000    0.36798500000000    0.25032600000000
Se    0.34478200000000   -0.11765800000000   -0.36798600000000
Se   -0.53756000000000   -0.25032700000000    0.11765700000000
Ag    0.51609900000000    0.26742300000000   -0.29545400000000
Ag    0.24867600000000    0.43712400000000   -0.26742400000000
Ag   -0.18844800000000    0.29545300000000   -0.43712500000000
Ag   -0.16426600000000   -0.01029800000000    0.22883000000000
Ag   -0.15396800000000    0.23912900000000    0.01029700000000
Ag   -0.39309700000000   -0.22883100000000   -0.23913000000000
Ag    0.10734900000000   -0.23980200000000   -0.23113700000000
Ag    0.34715100000000    0.00866600000000    0.23980100000000
Ag    0.33848500000000    0.23113600000000   -0.00866700000000
Ag    0.01819800000000   -0.30060400000000    0.26182500000000
Ag    0.31880300000000   -0.43757000000000    0.30060300000000
Ag   -0.24362700000000   -0.26182600000000    0.43756900000000
%ENDBLOCK POSITIONS_FRAC
KPOINTS_MP_SPACING 0.03
 
SYMMETRY_GENERATE
SNAP_TO_SYMMETRY
 
%BLOCK SPECIES_POT
C19
%ENDBLOCK SPECIES_POT
 
%BLOCK EXTERNAL_PRESSURE
0 0 0
0 0
0
%ENDBLOCK EXTERNAL_PRESSURE
