%BLOCK LATTICE_CART
    7.23298000000000    0.00000000000000    0.00000000000000
   -3.61649000000000    6.26394442506477    0.00000000000000
    0.00000000000000    0.00000000000000    8.69581000000000
%ENDBLOCK LATTICE_CART

%BLOCK POSITIONS_FRAC
Se    0.33333333333330    0.33333333333330   -0.33631154025400
Se   -0.33333333333330   -0.00000000000000   -0.00297820692060
Se   -0.00000000000000   -0.33333333333330    0.33035512641270
Se   -0.33333333333330   -0.00000000000000    0.41331643148500
Se   -0.00000000000000   -0.33333333333330   -0.25335023518170
Se    0.33333333333330    0.33333333333330    0.07998309815170
Ag   -0.37020946358990    0.33379589959680   -0.12442545126200
Ag   -0.33379589959680    0.29599463681330    0.20890788207130
Ag   -0.29599463681330    0.37020946358990   -0.45775878459540
Ag   -0.03687613025660    0.00046256626350    0.20890788207130
Ag   -0.00046256626350   -0.03733869652000   -0.45775878459540
Ag    0.03733869652000    0.03687613025660   -0.12442545126200
Ag    0.33287076706990   -0.37067202985340   -0.12442545126200
Ag    0.37067202985340   -0.29645720307670    0.20890788207130
Ag    0.29645720307670   -0.33287076706990   -0.45775878459540
Ag   -0.33333333333330   -0.00000000000000   -0.29407473744490
Ag   -0.00000000000000   -0.33333333333330    0.03925859588840
Ag    0.33333333333330    0.33333333333330    0.37259192922180
%ENDBLOCK POSITIONS_FRAC
KPOINTS_MP_SPACING 0.03
 
SYMMETRY_GENERATE
SNAP_TO_SYMMETRY
 
%BLOCK SPECIES_POT
C19
%ENDBLOCK SPECIES_POT
 
%BLOCK EXTERNAL_PRESSURE
0 0 0
0 0
0
%ENDBLOCK EXTERNAL_PRESSURE
