%BLOCK LATTICE_CART
    7.37390000000000    0.00000000000000    0.00000000000000
    0.00000000000000    7.92328000000000    0.00000000000000
    0.00000000000000   -3.96164000000000    6.86176176129717
%ENDBLOCK LATTICE_CART

%BLOCK POSITIONS_FRAC
Se    0.17239980238400   -0.35633354342770   -0.05652756924140
Se    0.17239980238400    0.29980607418620    0.35633354342770
Se    0.17239980238400    0.05652756924140   -0.29980607418620
Se   -0.39409538660520    0.03225432127910    0.30822576623650
Se   -0.39409538660520    0.27597154495740   -0.03225432127910
Se   -0.39409538660520   -0.30822576623650   -0.27597154495740
Ag   -0.11279876166890   -0.09753144330300   -0.24623882626300
Ag   -0.11279876166890   -0.14870728296000    0.09753144330300
Ag   -0.11279876166890    0.24623882626300    0.14870728296000
Ag   -0.10803938167410   -0.51705669705580   -0.43031381567620
Ag   -0.10803938167410    0.08674298137970    0.51705669705580
Ag   -0.10803938167410    0.43031381567620   -0.08674298137970
Ag    0.22952265900770    0.43717690556150    0.11882665101030
Ag    0.22952265900770   -0.31835015455120   -0.43717690556150
Ag    0.22952265900770   -0.11882665101030    0.31835015455120
Ag   -0.44891483144340    0.44979349690040    0.34972102699220
Ag   -0.44891483144340   -0.10007236990820   -0.44979349690040
Ag   -0.44891483144340   -0.34972102699220    0.10007236990820
%ENDBLOCK POSITIONS_FRAC
KPOINTS_MP_SPACING 0.03
 
SYMMETRY_GENERATE
SNAP_TO_SYMMETRY
 
%BLOCK SPECIES_POT
C19
%ENDBLOCK SPECIES_POT
 
%BLOCK EXTERNAL_PRESSURE
0 0 0
0 0
0
%ENDBLOCK EXTERNAL_PRESSURE
