%BLOCK LATTICE_CART
    7.06809000000000    0.00000000000000    0.00000000000000
   -3.53404500000000    6.12114549623475    0.00000000000000
    0.00000000000000    0.00000000000000    8.78408000000000
%ENDBLOCK LATTICE_CART

%BLOCK POSITIONS_FRAC
Se    0.38587441224170    0.02842513247900   -0.16713218680870
Se   -0.35744927976260   -0.38587441224160    0.16620114652460
Se   -0.02842513247900    0.35744927976260    0.49953447985800
Se    0.38648092427200    0.02703028076880    0.43058927088210
Se   -0.35945064350320   -0.38648092427200   -0.23607739578460
Se   -0.02703028076880    0.35945064350320    0.09725593754870
Ag   -0.27765347680280   -0.04917233755260   -0.03670747711550
Ag    0.22848113925010    0.27765347680280    0.29662585621780
Ag    0.04917233755260   -0.22848113925010   -0.37004081044890
Ag    0.02964421673710   -0.24435443209090    0.29276862100080
Ag   -0.27399864882800   -0.02964421673710   -0.37389804566590
Ag    0.24435443209090    0.27399864882800   -0.04056471233250
Ag   -0.37196181670530   -0.43050546828270    0.46413492679300
Ag   -0.05854365157740    0.37196181670530   -0.20253173987360
Ag    0.43050546828270    0.05854365157740    0.13080159345970
Ag   -0.26013054081000   -0.01081308241650    0.29903351191500
Ag    0.24931745839350    0.26013054081000   -0.36763315475170
Ag    0.01081308241650   -0.24931745839350   -0.03429982141830
%ENDBLOCK POSITIONS_FRAC
KPOINTS_MP_SPACING 0.03
 
SYMMETRY_GENERATE
SNAP_TO_SYMMETRY
 
%BLOCK SPECIES_POT
C19
%ENDBLOCK SPECIES_POT
 
%BLOCK EXTERNAL_PRESSURE
0 0 0
0 0
0
%ENDBLOCK EXTERNAL_PRESSURE
