%BLOCK LATTICE_CART
    4.23407000000000    0.00000000000000    0.00000000000000
    0.00000000000000    5.44082000000000    0.00000000000000
   -0.00156502117348    0.00000000000000    5.74065978667163
%ENDBLOCK LATTICE_CART

%BLOCK POSITIONS_FRAC
Se    0.12371927877720    0.36713925098950    0.24979999231530
Se   -0.12371927877720   -0.13286074901050   -0.24979999231530
Ag    0.42342392762050   -0.40937364547830   -0.08235423145090
Ag   -0.42342392762050    0.09062635452170    0.08235423145090
Ag   -0.42578755048320   -0.35599810551120    0.41818877782970
Ag    0.42578755048320    0.14400189448880   -0.41818877782970
%ENDBLOCK POSITIONS_FRAC
KPOINTS_MP_SPACING 0.03
 
SYMMETRY_GENERATE
SNAP_TO_SYMMETRY
 
%BLOCK SPECIES_POT
C19
%ENDBLOCK SPECIES_POT
 
%BLOCK EXTERNAL_PRESSURE
0 0 0
0 0
0
%ENDBLOCK EXTERNAL_PRESSURE
