%BLOCK LATTICE_CART
    4.49748000000000    0.00000000000000    0.00000000000000
    0.00000000000000    7.11326000000000    0.00000000000000
    0.00000000000000    0.00000000000000    7.67068000000000
%ENDBLOCK LATTICE_CART

%BLOCK POSITIONS_FRAC
Ag    0.02200599900000    0.22646400300000    0.86460101600000
Ag    0.65454202900000    0.88494801500000    0.95244097700000
Ag    0.47799399500000    0.77353602600000    0.36460098600000
Ag    0.15454199900000    0.61505198500000    0.04755900100000
Ag    0.84545797100000    0.11505200000000    0.45244100700000
Ag    0.97799402500000    0.72646397400000    0.63539898400000
Ag    0.34545800100000    0.38494798500000    0.54755902300000
Ag    0.52200597500000    0.27353599700000    0.13539899900000
Se    0.87879902100000    0.49677300500000    0.34555500700000
Se    0.12120100100000    0.99677300500000    0.15444500700000
Se    0.37879899100000    0.00322700000000    0.65444499300000
Se    0.62120097900000    0.50322699500000    0.84555500700000
%ENDBLOCK POSITIONS_FRAC

KPOINTS_MP_SPACING 0.07
 
SYMMETRY_GENERATE
SNAP_TO_SYMMETRY
 
%BLOCK SPECIES_POT
QC5
%ENDBLOCK SPECIES_POT
 
%BLOCK EXTERNAL_PRESSURE
0 0 0
0 0
0
%ENDBLOCK EXTERNAL_PRESSURE
