%BLOCK LATTICE_CART
    4.58224000000000    0.00000000000000    0.00000000000000
    0.00000000000000    7.34844000000000    0.00000000000000
    0.00000000000000    0.00000000000000    7.93764000000000
%ENDBLOCK LATTICE_CART

%BLOCK POSITIONS_FRAC
Ag    0.00554400000000    0.10289599700000    0.24414600400000
Ag    0.99445599300000    0.10289599700000    0.75585401100000
Ag    0.50000000000000    0.60905200200000    0.00000000000000
Ag    0.49445599300000    0.89710402500000    0.24414600400000
Ag    0.00000000000000    0.39094799800000    0.00000000000000
Ag    0.00000000000000    0.38506698600000    0.50000000000000
Ag    0.50554400700000    0.89710402500000    0.75585401100000
Ag    0.50000000000000    0.61493301400000    0.50000000000000
Se    0.51998102700000    0.29445099800000    0.25064900500000
Se    0.48001900300000    0.29445099800000    0.74935102500000
Se    0.01998100100000    0.70554900200000    0.74935102500000
Se    0.98001897300000    0.70554900200000    0.25064900500000
%ENDBLOCK POSITIONS_FRAC

KPOINTS_MP_SPACING 0.07
 
SYMMETRY_GENERATE
SNAP_TO_SYMMETRY
 
%BLOCK SPECIES_POT
QC5
%ENDBLOCK SPECIES_POT
 
%BLOCK EXTERNAL_PRESSURE
0 0 0
0 0
0
%ENDBLOCK EXTERNAL_PRESSURE
