%BLOCK LATTICE_CART
3.914865 0 0
0 3.914865 0
0 0 3.914865
%ENDBLOCK LATTICE_CART

#VARVOL=60 

%BLOCK POSITIONS_FRAC
Ag 0.0 0.0 0.0 # Ag1 % NUM=1
Ag 0.0 0.0 0.0 # Ag2 % NUM=1
Se 0.0 0.0 0.0 # Se1 % NUM=1
%ENDBLOCK POSITIONS_FRAC

##SPECIES=Ag,Se
##NATOM=3-9
##FOCUS=2
 
#SYMMOPS=2-4
##SGRANK=20
#NFORM=4
##ADJGEN=0-1
#SLACK=0.25
#OVERLAP=0.1
#MINSEP=1.0 Ag-Ag=2.6-3.0 Ag-Se=2.5-2.8 Se-Se=3.7-4.0
#COMPACT
#CELLADAPT
##SYSTEM={Rhom,Tric,Mono,Cubi,Hexa,Orth,Tetra}
 
KPOINTS_MP_SPACING 0.07
 
SYMMETRY_GENERATE
SNAP_TO_SYMMETRY
 
%BLOCK SPECIES_POT
QC5
%ENDBLOCK SPECIES_POT
 
%BLOCK EXTERNAL_PRESSURE
0 0 0
0 0
0
%ENDBLOCK EXTERNAL_PRESSURE
