# Compound: Ag8Se4. Old comment: Ag2Se p
   1.00000000000000     
     7.0051979900000001    0.0006956900000000    0.0000000000000000
    -0.0007509800000000    6.8834554600000004    0.0000000000000000
     0.0000000000000000    0.0000000000000000    4.8500646200000004
   Ag   Se
     8     4
Direct
  0.8597579600000032  0.3433415399999973  0.9974320399999996
  0.1402420399999968  0.6566584600000027  0.9974320399999996
  0.6402410500000002  0.8433473400000011  0.1692322399999995
  0.3597589499999998  0.1566526599999989  0.1692322399999995
  0.3597555200000002  0.6566473800000026  0.4974256699999984
  0.6402444799999998  0.3433526199999974  0.4974256699999984
  0.8597531200000006  0.8433498899999989  0.6692399900000012
  0.1402468799999994  0.1566501100000011  0.6692399900000012
  0.0000000000000000  0.0000000000000000  0.1643809500000017
  0.5000000000000000  0.0000000000000000  0.6643561799999986
  0.0000000000000000  0.5000000000000000  0.5023130599999988
  0.5000000000000000  0.5000000000000000  0.0022899599999988
 
  0.00000000E+00  0.00000000E+00  0.00000000E+00
  0.00000000E+00  0.00000000E+00  0.00000000E+00
  0.00000000E+00  0.00000000E+00  0.00000000E+00
  0.00000000E+00  0.00000000E+00  0.00000000E+00
  0.00000000E+00  0.00000000E+00  0.00000000E+00
  0.00000000E+00  0.00000000E+00  0.00000000E+00
  0.00000000E+00  0.00000000E+00  0.00000000E+00
  0.00000000E+00  0.00000000E+00  0.00000000E+00
  0.00000000E+00  0.00000000E+00  0.00000000E+00
  0.00000000E+00  0.00000000E+00  0.00000000E+00
  0.00000000E+00  0.00000000E+00  0.00000000E+00
  0.00000000E+00  0.00000000E+00  0.00000000E+00
