# No comment
0
Gamma
            4             4             6
  0.000000000   0.000000000   0.000000000
