# Compound: Se4Ag8. Old comment: Ag2Se p
   1.00000000000000     
     4.4185857500000001    0.0000000000000000    0.0064768900000000
     0.0000000000000000    6.8875810499999996    0.0000000000000000
    -2.1157208399999998    0.0000000000000000    7.6129714300000000
   Se   Ag
     4     8
Direct
  0.3212541099999981  0.2482776399999977  0.1568365099999980
  0.1787458399999977  0.7482776399999977  0.3431633699999992
  0.6787458399999977  0.7517223600000023  0.8431633699999992
  0.8212541099999981  0.2517223600000023  0.6568365099999980
  0.7672488299999998  0.0224451899999991  0.3400683599999965
  0.7327511299999969  0.5224451899999991  0.1599315200000007
  0.2327511299999969  0.9775548100000009  0.6599315200000007
  0.2672488299999998  0.4775548100000009  0.8400683599999965
  0.2243404700000013  0.3607449900000006  0.4670390100000006
  0.2756594800000016  0.8607449900000006  0.0329608699999966
  0.7756594800000016  0.6392550099999994  0.5329608699999966
  0.7243404700000013  0.1392550099999994  0.9670390100000006
 
  0.00000000E+00  0.00000000E+00  0.00000000E+00
  0.00000000E+00  0.00000000E+00  0.00000000E+00
  0.00000000E+00  0.00000000E+00  0.00000000E+00
  0.00000000E+00  0.00000000E+00  0.00000000E+00
  0.00000000E+00  0.00000000E+00  0.00000000E+00
  0.00000000E+00  0.00000000E+00  0.00000000E+00
  0.00000000E+00  0.00000000E+00  0.00000000E+00
  0.00000000E+00  0.00000000E+00  0.00000000E+00
  0.00000000E+00  0.00000000E+00  0.00000000E+00
  0.00000000E+00  0.00000000E+00  0.00000000E+00
  0.00000000E+00  0.00000000E+00  0.00000000E+00
  0.00000000E+00  0.00000000E+00  0.00000000E+00
