# No comment
0
Gamma
            6             4             4
  0.000000000   0.000000000   0.000000000
