# Compound: Se4Ag8. Old comment: Ag2Se primitive cell
  1.0000000000
  4.4185857500   0.0000000000   0.0064768900
  0.0000000000   6.8875810500   0.0000000000
 -2.1157208400   0.0000000000   7.6129714300
Se    Ag
    4     8
Direct
  0.3212541100   0.2482776400   0.1568365100
  0.1787458400   0.7482776400   0.3431633700
  0.6787458400   0.7517223600   0.8431633700
  0.8212541100   0.2517223600   0.6568365100
  0.7672488300   0.0224451900   0.3400683600
  0.7327511300   0.5224451900   0.1599315200
  0.2327511300   0.9775548100   0.6599315200
  0.2672488300   0.4775548100   0.8400683600
  0.2243404700   0.3607449900   0.4670390100
  0.2756594800   0.8607449900   0.0329608700
  0.7756594800   0.6392550100   0.5329608700
  0.7243404700   0.1392550100   0.9670390100
