# Compound: Se64Ag128. Old comment: Ag2Se supercell_06
  1.0000000000
 17.6743430000   0.0000000000   0.0259075600
  0.0000000000  13.7751621000   0.0000000000
 -4.2314416800   0.0000000000  15.2259428600
Se    Ag
   64   128
Direct
  0.0803135275   0.1241388200   0.0777854633
  0.3303135275   0.1241388200   0.0784182550
  0.5803135275   0.1241388200   0.0784182550
  0.8303135275   0.1241388200   0.0784182550
  0.0803135275   0.6241388200   0.0784182550
  0.3303135275   0.6241388200   0.0784182550
  0.5803135275   0.6241388200   0.0784182550
  0.8303135275   0.6241388200   0.0784182550
  0.0803135275   0.1241388200   0.5784182550
  0.3303135275   0.1241388200   0.5784182550
  0.5803135275   0.1241388200   0.5784182550
  0.8303135275   0.1241388200   0.5784182550
  0.0803135275   0.6241388200   0.5784182550
  0.3303135275   0.6241388200   0.5784182550
  0.5803135275   0.6241388200   0.5784182550
  0.8303135275   0.6241388200   0.5784182550
  0.0446864600   0.3741388200   0.1715816850
  0.2946864600   0.3741388200   0.1715816850
  0.5446864600   0.3741388200   0.1715816850
  0.7946864600   0.3741388200   0.1715816850
  0.0446864600   0.8741388200   0.1715816850
  0.2946864600   0.8741388200   0.1715816850
  0.5446864600   0.8741388200   0.1715816850
  0.7946864600   0.8741388200   0.1715816850
  0.0446864600   0.3741388200   0.6715816850
  0.2946864600   0.3741388200   0.6715816850
  0.5446864600   0.3741388200   0.6715816850
  0.7946864600   0.3741388200   0.6715816850
  0.0446864600   0.8741388200   0.6715816850
  0.2946864600   0.8741388200   0.6715816850
  0.5446864600   0.8741388200   0.6715816850
  0.7946864600   0.8741388200   0.6715816850
  0.1696864600   0.3758611800   0.4215816850
  0.4196864600   0.3758611800   0.4215816850
  0.6696864600   0.3758611800   0.4215816850
  0.9196864600   0.3758611800   0.4215816850
  0.1696864600   0.8758611800   0.4215816850
  0.4196864600   0.8758611800   0.4215816850
  0.6696864600   0.8758611800   0.4215816850
  0.9196864600   0.8758611800   0.4215816850
  0.1696864600   0.3758611800   0.9215816850
  0.4196864600   0.3758611800   0.9215816850
  0.6696864600   0.3758611800   0.9215816850
  0.9196864600   0.3758611800   0.9215816850
  0.1696864600   0.8758611800   0.9215816850
  0.4196864600   0.8758611800   0.9215816850
  0.6696864600   0.8758611800   0.9215816850
  0.9196864600   0.8758611800   0.9215816850
  0.2053135275   0.1258611800   0.3284182550
  0.4553135275   0.1258611800   0.3284182550
  0.7053135275   0.1258611800   0.3284182550
  0.9553135275   0.1258611800   0.3284182550
  0.2053135275   0.6258611800   0.3284182550
  0.4553135275   0.6258611800   0.3284182550
  0.7053135275   0.6258611800   0.3284182550
  0.9553135275   0.6258611800   0.3284182550
  0.2053135275   0.1258611800   0.8284182550
  0.4553135275   0.1258611800   0.8284182550
  0.7053135275   0.1258611800   0.8284182550
  0.9553135275   0.1258611800   0.8284182550
  0.2053135275   0.6258611800   0.8284182550
  0.4553135275   0.6258611800   0.8284182550
  0.7053135275   0.6258611800   0.8284182550
  0.9553135275   0.6258611800   0.8284182550
  0.1918122075   0.0112225950   0.1700341800
  0.4418122075   0.0112225950   0.1700341800
  0.6918122075   0.0112225950   0.1700341800
  0.9418122075   0.0112225950   0.1700341800
  0.1918122075   0.5112225950   0.1700341800
  0.4418122075   0.5112225950   0.1700341800
  0.6918122075   0.5112225950   0.1700341800
  0.9418122075   0.5112225950   0.1700341800
  0.1918122075   0.0112225950   0.6700341800
  0.4418122075   0.0112225950   0.6700341800
  0.6918122075   0.0112225950   0.6700341800
  0.9418122075   0.0112225950   0.6700341800
  0.1918122075   0.5112225950   0.6700341800
  0.4418122075   0.5112225950   0.6700341800
  0.6918122075   0.5112225950   0.6700341800
  0.9418122075   0.5112225950   0.6700341800
  0.1831877825   0.2612225950   0.0799657600
  0.4331877825   0.2612225950   0.0799657600
  0.6831877825   0.2612225950   0.0799657600
  0.9331877825   0.2612225950   0.0799657600
  0.1831877825   0.7612225950   0.0799657600
  0.4331877825   0.7612225950   0.0799657600
  0.6831877825   0.7612225950   0.0799657600
  0.9331877825   0.7612225950   0.0799657600
  0.1831877825   0.2612225950   0.5799657600
  0.4331877825   0.2612225950   0.5799657600
  0.6831877825   0.2612225950   0.5799657600
  0.9331877825   0.2612225950   0.5799657600
  0.1831877825   0.7612225950   0.5799657600
  0.4331877825   0.7612225950   0.5799657600
  0.6831877825   0.7612225950   0.5799657600
  0.9331877825   0.7612225950   0.5799657600
  0.0581877825   0.4887774050   0.3299657600
  0.3081877825   0.4887774050   0.3299657600
  0.5581877825   0.4887774050   0.3299657600
  0.8081877825   0.4887774050   0.3299657600
  0.0581877825   0.9887774050   0.3299657600
  0.3081877825   0.9887774050   0.3299657600
  0.5581877825   0.9887774050   0.3299657600
  0.8081877825   0.9887774050   0.3299657600
  0.0581877825   0.4887774050   0.8299657600
  0.3081877825   0.4887774050   0.8299657600
  0.5581877825   0.4887774050   0.8299657600
  0.8081877825   0.4887774050   0.8299657600
  0.0581877825   0.9887774050   0.8299657600
  0.3081877825   0.9887774050   0.8299657600
  0.5581877825   0.9887774050   0.8299657600
  0.8081877825   0.9887774050   0.8299657600
  0.0668122075   0.2387774050   0.4200341800
  0.3168122075   0.2387774050   0.4200341800
  0.5668122075   0.2387774050   0.4200341800
  0.8168122075   0.2387774050   0.4200341800
  0.0668122075   0.7387774050   0.4200341800
  0.3168122075   0.7387774050   0.4200341800
  0.5668122075   0.7387774050   0.4200341800
  0.8168122075   0.7387774050   0.4200341800
  0.0668122075   0.2387774050   0.9200341800
  0.3168122075   0.2387774050   0.9200341800
  0.5668122075   0.2387774050   0.9200341800
  0.8168122075   0.2387774050   0.9200341800
  0.0668122075   0.7387774050   0.9200341800
  0.3168122075   0.7387774050   0.9200341800
  0.5668122075   0.7387774050   0.9200341800
  0.8168122075   0.7387774050   0.9200341800
  0.0560851175   0.1803724950   0.2335195050
  0.3060851175   0.1803724950   0.2335195050
  0.5560851175   0.1803724950   0.2335195050
  0.8060851175   0.1803724950   0.2335195050
  0.0560851175   0.6803724950   0.2335195050
  0.3060851175   0.6803724950   0.2335195050
  0.5560851175   0.6803724950   0.2335195050
  0.8060851175   0.6803724950   0.2335195050
  0.0560851175   0.1803724950   0.7335195050
  0.3060851175   0.1803724950   0.7335195050
  0.5560851175   0.1803724950   0.7335195050
  0.8060851175   0.1803724950   0.7335195050
  0.0560851175   0.6803724950   0.7335195050
  0.3060851175   0.6803724950   0.7335195050
  0.5560851175   0.6803724950   0.7335195050
  0.8060851175   0.6803724950   0.7335195050
  0.0689148700   0.4303724950   0.0164804350
  0.3189148700   0.4303724950   0.0164804350
  0.5689148700   0.4303724950   0.0164804350
  0.8189148700   0.4303724950   0.0164804350
  0.0689148700   0.9303724950   0.0164804350
  0.3189148700   0.9303724950   0.0164804350
  0.5689148700   0.9303724950   0.0164804350
  0.8189148700   0.9303724950   0.0164804350
  0.0689148700   0.4303724950   0.5164804350
  0.3189148700   0.4303724950   0.5164804350
  0.5689148700   0.4303724950   0.5164804350
  0.8189148700   0.4303724950   0.5164804350
  0.0689148700   0.9303724950   0.5164804350
  0.3189148700   0.9303724950   0.5164804350
  0.5689148700   0.9303724950   0.5164804350
  0.8189148700   0.9303724950   0.5164804350
  0.1939148700   0.3196275050   0.2664804350
  0.4439148700   0.3196275050   0.2664804350
  0.6939148700   0.3196275050   0.2664804350
  0.9439148700   0.3196275050   0.2664804350
  0.1939148700   0.8196275050   0.2664804350
  0.4439148700   0.8196275050   0.2664804350
  0.6939148700   0.8196275050   0.2664804350
  0.9439148700   0.8196275050   0.2664804350
  0.1939148700   0.3196275050   0.7664804350
  0.4439148700   0.3196275050   0.7664804350
  0.6939148700   0.3196275050   0.7664804350
  0.9439148700   0.3196275050   0.7664804350
  0.1939148700   0.8196275050   0.7664804350
  0.4439148700   0.8196275050   0.7664804350
  0.6939148700   0.8196275050   0.7664804350
  0.9439148700   0.8196275050   0.7664804350
  0.1810851175   0.0696275050   0.4835195050
  0.4310851175   0.0696275050   0.4835195050
  0.6810851175   0.0696275050   0.4835195050
  0.9310851175   0.0696275050   0.4835195050
  0.1810851175   0.5696275050   0.4835195050
  0.4310851175   0.5696275050   0.4835195050
  0.6810851175   0.5696275050   0.4835195050
  0.9310851175   0.5696275050   0.4835195050
  0.1810851175   0.0696275050   0.9835195050
  0.4310851175   0.0696275050   0.9835195050
  0.6810851175   0.0696275050   0.9835195050
  0.9310851175   0.0696275050   0.9835195050
  0.1810851175   0.5696275050   0.9835195050
  0.4310851175   0.5696275050   0.9835195050
  0.6810851175   0.5696275050   0.9835195050
  0.9310851175   0.5696275050   0.9835195050
