# Compound: Ag8Se4. Old comment: Ag2Se GUNTER PBEsol HIGH PREC
  1.0000000000
  7.0051979900   0.0006956900   0.0000000000
 -0.0007509800   6.8834554600   0.0000000000
  0.0000000000   0.0000000000   4.8500646200
Ag    Se
    8     4
Direct
  0.8597579600   0.3433415400   0.9974320400
  0.1402420400   0.6566584600   0.9974320400
  0.6402410500   0.8433473400   0.1692322400
  0.3597589500   0.1566526600   0.1692322400
  0.3597555200   0.6566473800   0.4974256700
  0.6402444800   0.3433526200   0.4974256700
  0.8597531200   0.8433498900   0.6692399900
  0.1402468800   0.1566501100   0.6692399900
  0.0000000000   0.0000000000   0.1643809500
  0.5000000000   0.0000000000   0.6643561800
  0.0000000000   0.5000000000   0.5023130600
  0.5000000000   0.5000000000   0.0022899600
